$ Mods to get this to run in MYSTRAN:
$
$  1. Change SOL 101 to SOL 1
$  2. Change SET 101 = 1,thru,3096 to SET 101 = 1,THRU,3096
$  3. Move SPC = 2 above subcase level
$  4. Change oload(punch) to OLOAD
$  5. Comment out DISPLACEMENT(PLOT,SORT1,REAL)=ALL for S/C 2
$  6. Change SPCFORCES(SORT1,REAL)=ALL to SPCFORCES=ALL
$  7. Remove REPCASE
$  8. Change the PLOAD4 load to a PLOAD2 format
$  9. Add SEQGP cards
$ 10. Add SPC1 set 31 cards to remove singularities MYSTRAN found in the singularity processor
$ 11. Change Sandra's SPCADD to include set 31 (above)
$ 12. Add DISP = ALL above S/C level
$ 13. Add OLOAD = ALL above S/C level
$ 12. Add SPCFORCES = ALL above S/C level
$ 13. Add ELFORCE(NODE) = ALL above S/C level
$ 15. Add STRESS = ALL above S/C level
$ 16. Add PARAM SORT_MAX 20 (after adding SEQGP cards, SORT had trouble sorting TDOF array with the default SORT_MAX
$ 17. Add PARAM PRTDOF 
$ 18. Add PARAM SUPMSG
$ 19. Add ECHO = UNSORT
$ 20. Add SPC1 set 32 cards to remove singularity at 60001 (MYSTRAN did not find in the sing processor, but were 0 stiff on diag)
$ 21. Add SPC1 set 33 cards to remove singularities (MYSTRAN found in the singularity processor after EPS_SINGULAR)
$ 
ID IRISH,LWIRD
$~~~~~~~~~~~~~~~~~~~~~~~~~~~~~~~~~~~~~~~~~~~~~~~~~~~~~~~~~~~~~~~~
$
$              Goddard Mirror on 3 ball points
$      Two missing patches on backplate - rough mesh
$  Reduces mirror core thickness to 0.045" (from 0.050") and
$      updates core strut thicknesses to measured values at
$      mountpad locations.
$                 -->  Baseline 1G backout 
$                      August 26, 2002 
$ 
$---> October 25, 2002:  Updated backplate t = 0.15" (pshellr.2)
$                        Updated frontplate t= 0.11" (pshellr.1)
$                        --> meas. provided by Pat Clark
$~~~~~~~~~~~~~~~~~~~~~~~~~~~~~~~~~~~~~~~~~~~~~~~~~~~~~~~~~~~~~~~~
$$SOL 101
SOL 1
TIME 5
$ Direct Text Input for Executive Control
CEND
$SEALL = ALL
$SUPER = ALL
$ECHO = PUNCH
MAXLINES = 999999999
$
$$SET 101 = 1,thru,3096
SET 101 = 1,THRU,3096
$ Direct Text Input for Global Case Control Data
ECHO = NONE
SPC = 2
DISP = ALL
OLOAD = ALL
SPCFORCES = ALL
ELFORCE(NODE) = ALL
STRESS = ALL 
SUBCASE 1
  Subcase name : Oload
   SUBTITLE=Oload
$  SPC = 2
  LOAD = 2
$$ oload(punch)=ALL
$  OLOAD = ALL
SUBCASE 2
  Subcase name : 1G
   SUBTITLE=1G
$  SPC = 2
   LOAD = 4
$$ DISPLACEMENT(PLOT,SORT1,REAL)=ALL
$  DISPLACEMENT = ALL
$$ SPCFORCES(SORT1,REAL)=ALL
$  SPCFORCES = ALL
$   STRESS(SORT1,REAL,VONMISES,BILIN)=ALL
$$REPCASE 3
$$   DISP(PUNCH)=101

BEGIN BULK
PARAM,GRDPNT,60001
PARAM    POST    -1
PARAM,NOCOMPS,-1
PARAM   PRTMAXIM YES
PARAM,K6ROT,1.
PARAM,SNORM,20.
PARAM,AUTOSPC,YES
PARAM   SORT_MAX 20
PARAM   PRTDOF   2
PARAM   SUPMSG   Y
PARAM   PRTSTIFD 1                       1
PARAM   EPS_SING 0.
PARAM   RCONDK   Y
PARAM   AUTOSPC  Y      .00005
PARAM   PCHSPC1  Y
$ Direct Text Input for Bulk Data
$ Elements and Element Properties for region : pshellr.1
PSHELL   1       1       .11     1               1
$ Pset: "pshellr.1" will be imported as: "pshell.1"
CTRIA3   1       1       1       166     2       0.
CTRIA3   2       1       164     2       166     0.
CTRIA3   3       1       166     165     164     0.
CTRIA3   4       1       162     164     165     0.
CTRIA3   5       1       165     161     162     0.
CTRIA3   6       1       2       164     3       0.
CTRIA3   7       1       163     3       164     0.
CTRIA3   8       1       164     162     163     0.
CTRIA3   9       1       3       163     4       0.
CTRIA3   10      1       117     168     124     0.
CTRIA3   11      1       125     124     168     0.
CTRIA3   12      1       168     167     125     0.
CTRIA3   13      1       4       163     5       0.
CTRIA3   14      1       169     5       163     0.
CTRIA3   15      1       163     162     169     0.
CTRIA3   16      1       167     169     162     0.
CTRIA3   17      1       162     161     167     0.
CTRIA3   18      1       5       169     6       0.
CTRIA3   19      1       168     6       169     0.
CTRIA3   20      1       169     167     168     0.
CTRIA3   21      1       6       168     117     0.
CTRIA3   22      1       9       176     10      0.
CTRIA3   23      1       174     10      176     0.
CTRIA3   24      1       176     175     174     0.
CTRIA3   25      1       172     174     175     0.
CTRIA3   26      1       175     171     172     0.
CTRIA3   27      1       10      174     11      0.
CTRIA3   28      1       173     11      174     0.
CTRIA3   29      1       174     172     173     0.
CTRIA3   30      1       11      173     12      0.
CTRIA3   31      1       15      185     16      0.
CTRIA3   32      1       118     179     7       0.
CTRIA3   33      1       177     7       179     0.
CTRIA3   34      1       179     178     177     0.
CTRIA3   35      1       175     177     178     0.
CTRIA3   36      1       178     171     175     0.
CTRIA3   37      1       7       177     8       0.
CTRIA3   38      1       176     8       177     0.
CTRIA3   39      1       177     175     176     0.
CTRIA3   40      1       8       176     9       0.
CTRIA3   41      1       179     121     119     0.
CTRIA3   42      1       119     178     179     0.
CTRIA3   43      1       121     179     118     0.
CTRIA3   44      1       183     16      185     0.
CTRIA3   45      1       185     184     183     0.
CTRIA3   46      1       181     183     184     0.
CTRIA3   47      1       184     180     181     0.
CTRIA3   48      1       16      183     17      0.
CTRIA3   49      1       182     17      183     0.
CTRIA3   50      1       183     181     182     0.
CTRIA3   51      1       17      182     18      0.
CTRIA3   52      1       4       188     13      0.
CTRIA3   53      1       186     13      188     0.
CTRIA3   54      1       188     187     186     0.
CTRIA3   55      1       184     186     187     0.
CTRIA3   56      1       187     180     184     0.
CTRIA3   57      1       13      186     14      0.
CTRIA3   58      1       185     14      186     0.
CTRIA3   59      1       186     184     185     0.
CTRIA3   60      1       14      185     15      0.
CTRIA3   61      1       117     191     6       0.
CTRIA3   62      1       189     6       191     0.
CTRIA3   63      1       191     190     189     0.
CTRIA3   64      1       187     189     190     0.
CTRIA3   65      1       190     180     187     0.
CTRIA3   66      1       6       189     5       0.
CTRIA3   67      1       188     5       189     0.
CTRIA3   68      1       189     187     188     0.
CTRIA3   69      1       5       188     4       0.
CTRIA3   70      1       118     194     122     0.
CTRIA3   71      1       192     122     194     0.
CTRIA3   72      1       194     193     192     0.
CTRIA3   73      1       190     192     193     0.
CTRIA3   74      1       193     180     190     0.
CTRIA3   75      1       122     192     123     0.
CTRIA3   76      1       191     123     192     0.
CTRIA3   77      1       192     190     191     0.
CTRIA3   78      1       123     191     117     0.
CTRIA3   79      1       9       197     8       0.
CTRIA3   80      1       195     8       197     0.
CTRIA3   81      1       197     196     195     0.
CTRIA3   82      1       193     195     196     0.
CTRIA3   83      1       196     180     193     0.
CTRIA3   84      1       8       195     7       0.
CTRIA3   85      1       194     7       195     0.
CTRIA3   86      1       195     193     194     0.
CTRIA3   87      1       7       194     118     0.
CTRIA3   88      1       18      182     19      0.
CTRIA3   89      1       198     19      182     0.
CTRIA3   90      1       182     181     198     0.
CTRIA3   91      1       196     198     181     0.
CTRIA3   92      1       181     180     196     0.
CTRIA3   93      1       19      198     20      0.
CTRIA3   94      1       197     20      198     0.
CTRIA3   95      1       198     196     197     0.
CTRIA3   96      1       20      197     9       0.
CTRIA3   97      1       200     202     203     0.
CTRIA3   98      1       203     199     200     0.
CTRIA3   99      1       201     21      202     0.
CTRIA3   100     1       202     200     201     0.
CTRIA3   101     1       21      201     22      0.
CTRIA3   102     1       204     199     203     0.
CTRIA3   103     1       1       207     170     0.
CTRIA3   104     1       205     170     207     0.
CTRIA3   105     1       207     206     205     0.
CTRIA3   106     1       204     205     206     0.
CTRIA3   107     1       206     199     204     0.
CTRIA3   108     1       4       210     3       0.
CTRIA3   109     1       208     3       210     0.
CTRIA3   110     1       210     209     208     0.
CTRIA3   111     1       206     208     209     0.
CTRIA3   112     1       209     199     206     0.
CTRIA3   113     1       3       208     2       0.
CTRIA3   114     1       207     2       208     0.
CTRIA3   115     1       208     206     207     0.
CTRIA3   116     1       2       207     1       0.
CTRIA3   117     1       15      213     14      0.
CTRIA3   118     1       211     14      213     0.
CTRIA3   119     1       213     212     211     0.
CTRIA3   120     1       209     211     212     0.
CTRIA3   121     1       212     199     209     0.
CTRIA3   122     1       14      211     13      0.
CTRIA3   123     1       210     13      211     0.
CTRIA3   124     1       211     209     210     0.
CTRIA3   125     1       13      210     4       0.
CTRIA3   126     1       22      201     23      0.
CTRIA3   127     1       214     23      201     0.
CTRIA3   128     1       201     200     214     0.
CTRIA3   129     1       212     214     200     0.
CTRIA3   130     1       200     199     212     0.
CTRIA3   131     1       23      214     24      0.
CTRIA3   132     1       213     24      214     0.
CTRIA3   133     1       214     212     213     0.
CTRIA3   134     1       24      213     15      0.
CTRIA3   135     1       27      220     28      0.
CTRIA3   136     1       218     28      220     0.
CTRIA3   137     1       220     219     218     0.
CTRIA3   138     1       216     218     219     0.
CTRIA3   139     1       219     215     216     0.
CTRIA3   140     1       28      218     29      0.
CTRIA3   141     1       217     29      218     0.
CTRIA3   142     1       218     216     217     0.
CTRIA3   143     1       29      217     30      0.
CTRIA3   144     1       38      239     39      0.
CTRIA3   145     1       18      223     25      0.
CTRIA3   146     1       221     25      223     0.
CTRIA3   147     1       223     222     221     0.
CTRIA3   148     1       219     221     222     0.
CTRIA3   149     1       222     215     219     0.
CTRIA3   150     1       25      221     26      0.
CTRIA3   151     1       220     26      221     0.
CTRIA3   152     1       221     219     220     0.
CTRIA3   153     1       26      220     27      0.
CTRIA3   154     1       9       226     20      0.
CTRIA3   155     1       224     20      226     0.
CTRIA3   156     1       226     225     224     0.
CTRIA3   157     1       222     224     225     0.
CTRIA3   158     1       225     215     222     0.
CTRIA3   159     1       20      224     19      0.
CTRIA3   160     1       223     19      224     0.
CTRIA3   161     1       224     222     223     0.
CTRIA3   162     1       19      223     18      0.
CTRIA3   163     1       12      229     11      0.
CTRIA3   164     1       227     11      229     0.
CTRIA3   165     1       229     228     227     0.
CTRIA3   166     1       225     227     228     0.
CTRIA3   167     1       228     215     225     0.
CTRIA3   168     1       11      227     10      0.
CTRIA3   169     1       226     10      227     0.
CTRIA3   170     1       227     225     226     0.
CTRIA3   171     1       10      226     9       0.
CTRIA3   172     1       33      232     34      0.
CTRIA3   173     1       230     34      232     0.
CTRIA3   174     1       232     231     230     0.
CTRIA3   175     1       228     230     231     0.
CTRIA3   176     1       231     215     228     0.
CTRIA3   177     1       34      230     35      0.
CTRIA3   178     1       229     35      230     0.
CTRIA3   179     1       230     228     229     0.
CTRIA3   180     1       35      229     12      0.
CTRIA3   181     1       30      217     31      0.
CTRIA3   182     1       233     31      217     0.
CTRIA3   183     1       217     216     233     0.
CTRIA3   184     1       231     233     216     0.
CTRIA3   185     1       216     215     231     0.
CTRIA3   186     1       31      233     32      0.
CTRIA3   187     1       232     32      233     0.
CTRIA3   188     1       233     231     232     0.
CTRIA3   189     1       32      232     33      0.
CTRIA3   190     1       237     39      239     0.
CTRIA3   191     1       239     238     237     0.
CTRIA3   192     1       235     237     238     0.
CTRIA3   193     1       238     234     235     0.
CTRIA3   194     1       39      237     40      0.
CTRIA3   195     1       236     40      237     0.
CTRIA3   196     1       237     235     236     0.
CTRIA3   197     1       40      236     41      0.
CTRIA3   198     1       22      242     36      0.
CTRIA3   199     1       240     36      242     0.
CTRIA3   200     1       242     241     240     0.
CTRIA3   201     1       238     240     241     0.
CTRIA3   202     1       241     234     238     0.
CTRIA3   203     1       36      240     37      0.
CTRIA3   204     1       239     37      240     0.
CTRIA3   205     1       240     238     239     0.
CTRIA3   206     1       37      239     38      0.
CTRIA3   207     1       15      245     24      0.
CTRIA3   208     1       243     24      245     0.
CTRIA3   209     1       245     244     243     0.
CTRIA3   210     1       241     243     244     0.
CTRIA3   211     1       244     234     241     0.
CTRIA3   212     1       24      243     23      0.
CTRIA3   213     1       242     23      243     0.
CTRIA3   214     1       243     241     242     0.
CTRIA3   215     1       23      242     22      0.
CTRIA3   216     1       18      248     17      0.
CTRIA3   217     1       246     17      248     0.
CTRIA3   218     1       248     247     246     0.
CTRIA3   219     1       244     246     247     0.
CTRIA3   220     1       247     234     244     0.
CTRIA3   221     1       17      246     16      0.
CTRIA3   222     1       245     16      246     0.
CTRIA3   223     1       246     244     245     0.
CTRIA3   224     1       16      245     15      0.
CTRIA3   225     1       27      251     26      0.
CTRIA3   226     1       249     26      251     0.
CTRIA3   227     1       251     250     249     0.
CTRIA3   228     1       247     249     250     0.
CTRIA3   229     1       250     234     247     0.
CTRIA3   230     1       26      249     25      0.
CTRIA3   231     1       248     25      249     0.
CTRIA3   232     1       249     247     248     0.
CTRIA3   233     1       25      248     18      0.
CTRIA3   234     1       41      236     42      0.
CTRIA3   235     1       252     42      236     0.
CTRIA3   236     1       236     235     252     0.
CTRIA3   237     1       250     252     235     0.
CTRIA3   238     1       235     234     250     0.
CTRIA3   239     1       42      252     43      0.
CTRIA3   240     1       251     43      252     0.
CTRIA3   241     1       252     250     251     0.
CTRIA3   242     1       43      251     27      0.
CTRIA3   243     1       45      257     46      0.
CTRIA3   244     1       255     46      257     0.
CTRIA3   245     1       257     256     255     0.
CTRIA3   246     1       253     255     256     0.
CTRIA3   247     1       46      255     47      0.
CTRIA3   248     1       254     47      255     0.
CTRIA3   249     1       255     253     254     0.
CTRIA3   250     1       47      254     48      0.
CTRIA3   251     1       44      257     45      0.
CTRIA3   252     1       22      258     21      0.
CTRIA3   253     1       38      261     37      0.
CTRIA3   254     1       259     37      261     0.
CTRIA3   255     1       261     260     259     0.
CTRIA3   256     1       37      259     36      0.
CTRIA3   257     1       258     36      259     0.
CTRIA3   258     1       36      258     22      0.
CTRIA3   259     1       48      254     49      0.
CTRIA3   260     1       262     49      254     0.
CTRIA3   261     1       254     253     262     0.
CTRIA3   262     1       260     262     253     0.
CTRIA3   263     1       49      262     50      0.
CTRIA3   264     1       261     50      262     0.
CTRIA3   265     1       262     260     261     0.
CTRIA3   266     1       50      261     38      0.
CTRIA3   267     1       52      267     53      0.
CTRIA3   268     1       265     53      267     0.
CTRIA3   269     1       267     266     265     0.
CTRIA3   270     1       263     265     266     0.
CTRIA3   271     1       53      265     54      0.
CTRIA3   272     1       264     54      265     0.
CTRIA3   273     1       265     263     264     0.
CTRIA3   274     1       54      264     55      0.
CTRIA3   275     1       51      267     52      0.
CTRIA3   276     1       45      269     44      0.
CTRIA3   277     1       55      264     56      0.
CTRIA3   278     1       270     56      264     0.
CTRIA3   279     1       264     263     270     0.
CTRIA3   280     1       268     270     263     0.
CTRIA3   281     1       56      270     57      0.
CTRIA3   282     1       269     57      270     0.
CTRIA3   283     1       270     268     269     0.
CTRIA3   284     1       57      269     45      0.
CTRIA3   285     1       271     133     134     0.
CTRIA3   286     1       133     271     272     0.
CTRIA3   287     1       52      274     51      0.
CTRIA3   288     1       127     272     58      0.
CTRIA3   289     1       275     58      272     0.
CTRIA3   290     1       272     271     275     0.
CTRIA3   291     1       273     275     271     0.
CTRIA3   292     1       58      275     59      0.
CTRIA3   293     1       274     59      275     0.
CTRIA3   294     1       275     273     274     0.
CTRIA3   295     1       59      274     52      0.
CTRIA3   296     1       62      281     63      0.
CTRIA3   297     1       279     63      281     0.
CTRIA3   298     1       281     280     279     0.
CTRIA3   299     1       277     279     280     0.
CTRIA3   300     1       280     276     277     0.
CTRIA3   301     1       63      279     64      0.
CTRIA3   302     1       278     64      279     0.
CTRIA3   303     1       279     277     278     0.
CTRIA3   304     1       64      278     65      0.
CTRIA3   305     1       68      293     69      0.
CTRIA3   306     1       30      284     60      0.
CTRIA3   307     1       282     60      284     0.
CTRIA3   308     1       284     283     282     0.
CTRIA3   309     1       280     282     283     0.
CTRIA3   310     1       283     276     280     0.
CTRIA3   311     1       60      282     61      0.
CTRIA3   312     1       281     61      282     0.
CTRIA3   313     1       282     280     281     0.
CTRIA3   314     1       61      281     62      0.
CTRIA3   315     1       33      287     32      0.
CTRIA3   316     1       285     32      287     0.
CTRIA3   317     1       287     286     285     0.
CTRIA3   318     1       283     285     286     0.
CTRIA3   319     1       286     276     283     0.
CTRIA3   320     1       32      285     31      0.
CTRIA3   321     1       284     31      285     0.
CTRIA3   322     1       285     283     284     0.
CTRIA3   323     1       31      284     30      0.
CTRIA3   324     1       291     69      293     0.
CTRIA3   325     1       293     292     291     0.
CTRIA3   326     1       289     291     292     0.
CTRIA3   327     1       292     288     289     0.
CTRIA3   328     1       69      291     70      0.
CTRIA3   329     1       290     70      291     0.
CTRIA3   330     1       291     289     290     0.
CTRIA3   331     1       70      290     71      0.
CTRIA3   332     1       41      296     66      0.
CTRIA3   333     1       294     66      296     0.
CTRIA3   334     1       296     295     294     0.
CTRIA3   335     1       292     294     295     0.
CTRIA3   336     1       295     288     292     0.
CTRIA3   337     1       66      294     67      0.
CTRIA3   338     1       293     67      294     0.
CTRIA3   339     1       294     292     293     0.
CTRIA3   340     1       67      293     68      0.
CTRIA3   341     1       27      299     43      0.
CTRIA3   342     1       297     43      299     0.
CTRIA3   343     1       299     298     297     0.
CTRIA3   344     1       295     297     298     0.
CTRIA3   345     1       298     288     295     0.
CTRIA3   346     1       43      297     42      0.
CTRIA3   347     1       296     42      297     0.
CTRIA3   348     1       297     295     296     0.
CTRIA3   349     1       42      296     41      0.
CTRIA3   350     1       30      302     29      0.
CTRIA3   351     1       300     29      302     0.
CTRIA3   352     1       302     301     300     0.
CTRIA3   353     1       298     300     301     0.
CTRIA3   354     1       301     288     298     0.
CTRIA3   355     1       29      300     28      0.
CTRIA3   356     1       299     28      300     0.
CTRIA3   357     1       300     298     299     0.
CTRIA3   358     1       28      299     27      0.
CTRIA3   359     1       62      305     61      0.
CTRIA3   360     1       303     61      305     0.
CTRIA3   361     1       305     304     303     0.
CTRIA3   362     1       301     303     304     0.
CTRIA3   363     1       304     288     301     0.
CTRIA3   364     1       61      303     60      0.
CTRIA3   365     1       302     60      303     0.
CTRIA3   366     1       303     301     302     0.
CTRIA3   367     1       60      302     30      0.
CTRIA3   368     1       71      290     72      0.
CTRIA3   369     1       306     72      290     0.
CTRIA3   370     1       290     289     306     0.
CTRIA3   371     1       304     306     289     0.
CTRIA3   372     1       289     288     304     0.
CTRIA3   373     1       72      306     73      0.
CTRIA3   374     1       305     73      306     0.
CTRIA3   375     1       306     304     305     0.
CTRIA3   376     1       73      305     62      0.
CTRIA3   377     1       76      312     77      0.
CTRIA3   378     1       310     77      312     0.
CTRIA3   379     1       312     311     310     0.
CTRIA3   380     1       308     310     311     0.
CTRIA3   381     1       311     307     308     0.
CTRIA3   382     1       77      310     78      0.
CTRIA3   383     1       309     78      310     0.
CTRIA3   384     1       310     308     309     0.
CTRIA3   385     1       78      309     79      0.
CTRIA3   386     1       48      315     74      0.
CTRIA3   387     1       313     74      315     0.
CTRIA3   388     1       315     314     313     0.
CTRIA3   389     1       311     313     314     0.
CTRIA3   390     1       314     307     311     0.
CTRIA3   391     1       74      313     75      0.
CTRIA3   392     1       312     75      313     0.
CTRIA3   393     1       313     311     312     0.
CTRIA3   394     1       75      312     76      0.
CTRIA3   395     1       38      318     50      0.
CTRIA3   396     1       316     50      318     0.
CTRIA3   397     1       318     317     316     0.
CTRIA3   398     1       314     316     317     0.
CTRIA3   399     1       317     307     314     0.
CTRIA3   400     1       50      316     49      0.
CTRIA3   401     1       315     49      316     0.
CTRIA3   402     1       316     314     315     0.
CTRIA3   403     1       49      315     48      0.
CTRIA3   404     1       41      321     40      0.
CTRIA3   405     1       319     40      321     0.
CTRIA3   406     1       321     320     319     0.
CTRIA3   407     1       317     319     320     0.
CTRIA3   408     1       320     307     317     0.
CTRIA3   409     1       40      319     39      0.
CTRIA3   410     1       318     39      319     0.
CTRIA3   411     1       319     317     318     0.
CTRIA3   412     1       39      318     38      0.
CTRIA3   413     1       68      324     67      0.
CTRIA3   414     1       322     67      324     0.
CTRIA3   415     1       324     323     322     0.
CTRIA3   416     1       320     322     323     0.
CTRIA3   417     1       323     307     320     0.
CTRIA3   418     1       67      322     66      0.
CTRIA3   419     1       321     66      322     0.
CTRIA3   420     1       322     320     321     0.
CTRIA3   421     1       66      321     41      0.
CTRIA3   422     1       79      309     80      0.
CTRIA3   423     1       325     80      309     0.
CTRIA3   424     1       309     308     325     0.
CTRIA3   425     1       323     325     308     0.
CTRIA3   426     1       308     307     323     0.
CTRIA3   427     1       80      325     81      0.
CTRIA3   428     1       324     81      325     0.
CTRIA3   429     1       325     323     324     0.
CTRIA3   430     1       81      324     68      0.
CTRIA3   431     1       84      331     85      0.
CTRIA3   432     1       329     85      331     0.
CTRIA3   433     1       331     330     329     0.
CTRIA3   434     1       327     329     330     0.
CTRIA3   435     1       330     326     327     0.
CTRIA3   436     1       85      329     86      0.
CTRIA3   437     1       328     86      329     0.
CTRIA3   438     1       329     327     328     0.
CTRIA3   439     1       86      328     87      0.
CTRIA3   440     1       55      334     82      0.
CTRIA3   441     1       332     82      334     0.
CTRIA3   442     1       334     333     332     0.
CTRIA3   443     1       330     332     333     0.
CTRIA3   444     1       333     326     330     0.
CTRIA3   445     1       82      332     83      0.
CTRIA3   446     1       331     83      332     0.
CTRIA3   447     1       332     330     331     0.
CTRIA3   448     1       83      331     84      0.
CTRIA3   449     1       45      337     57      0.
CTRIA3   450     1       335     57      337     0.
CTRIA3   451     1       337     336     335     0.
CTRIA3   452     1       333     335     336     0.
CTRIA3   453     1       336     326     333     0.
CTRIA3   454     1       57      335     56      0.
CTRIA3   455     1       334     56      335     0.
CTRIA3   456     1       335     333     334     0.
CTRIA3   457     1       56      334     55      0.
CTRIA3   458     1       48      340     47      0.
CTRIA3   459     1       338     47      340     0.
CTRIA3   460     1       340     339     338     0.
CTRIA3   461     1       336     338     339     0.
CTRIA3   462     1       339     326     336     0.
CTRIA3   463     1       47      338     46      0.
CTRIA3   464     1       337     46      338     0.
CTRIA3   465     1       338     336     337     0.
CTRIA3   466     1       46      337     45      0.
CTRIA3   467     1       76      343     75      0.
CTRIA3   468     1       341     75      343     0.
CTRIA3   469     1       343     342     341     0.
CTRIA3   470     1       339     341     342     0.
CTRIA3   471     1       342     326     339     0.
CTRIA3   472     1       75      341     74      0.
CTRIA3   473     1       340     74      341     0.
CTRIA3   474     1       341     339     340     0.
CTRIA3   475     1       74      340     48      0.
CTRIA3   476     1       87      328     88      0.
CTRIA3   477     1       344     88      328     0.
CTRIA3   478     1       328     327     344     0.
CTRIA3   479     1       342     344     327     0.
CTRIA3   480     1       327     326     342     0.
CTRIA3   481     1       88      344     89      0.
CTRIA3   482     1       343     89      344     0.
CTRIA3   483     1       344     342     343     0.
CTRIA3   484     1       89      343     76      0.
CTRIA3   485     1       138     345     139     0.
CTRIA3   486     1       136     346     137     0.
CTRIA3   487     1       138     137     346     0.
CTRIA3   488     1       346     345     138     0.
CTRIA3   489     1       52      349     59      0.
CTRIA3   490     1       347     59      349     0.
CTRIA3   491     1       349     348     347     0.
CTRIA3   492     1       346     347     348     0.
CTRIA3   493     1       348     345     346     0.
CTRIA3   494     1       59      347     58      0.
CTRIA3   495     1       136     58      347     0.
CTRIA3   496     1       347     346     136     0.
CTRIA3   497     1       58      136     127     0.
CTRIA3   498     1       55      352     54      0.
CTRIA3   499     1       350     54      352     0.
CTRIA3   500     1       352     351     350     0.
CTRIA3   501     1       348     350     351     0.
CTRIA3   502     1       351     345     348     0.
CTRIA3   503     1       54      350     53      0.
CTRIA3   504     1       349     53      350     0.
CTRIA3   505     1       350     348     349     0.
CTRIA3   506     1       53      349     52      0.
CTRIA3   507     1       84      355     83      0.
CTRIA3   508     1       353     83      355     0.
CTRIA3   509     1       355     354     353     0.
CTRIA3   510     1       351     353     354     0.
CTRIA3   511     1       354     345     351     0.
CTRIA3   512     1       83      353     82      0.
CTRIA3   513     1       352     82      353     0.
CTRIA3   514     1       353     351     352     0.
CTRIA3   515     1       82      352     55      0.
CTRIA3   516     1       356     128     140     0.
CTRIA3   517     1       140     139     356     0.
CTRIA3   518     1       354     356     139     0.
CTRIA3   519     1       139     345     354     0.
CTRIA3   520     1       128     356     90      0.
CTRIA3   521     1       355     90      356     0.
CTRIA3   522     1       356     354     355     0.
CTRIA3   523     1       90      355     84      0.
CTRIA3   524     1       93      362     94      0.
CTRIA3   525     1       360     94      362     0.
CTRIA3   526     1       362     361     360     0.
CTRIA3   527     1       358     360     361     0.
CTRIA3   528     1       361     357     358     0.
CTRIA3   529     1       94      360     95      0.
CTRIA3   530     1       359     95      360     0.
CTRIA3   531     1       360     358     359     0.
CTRIA3   532     1       95      359     96      0.
CTRIA3   533     1       104     381     105     0.
CTRIA3   534     1       71      365     91      0.
CTRIA3   535     1       363     91      365     0.
CTRIA3   536     1       365     364     363     0.
CTRIA3   537     1       361     363     364     0.
CTRIA3   538     1       364     357     361     0.
CTRIA3   539     1       91      363     92      0.
CTRIA3   540     1       362     92      363     0.
CTRIA3   541     1       363     361     362     0.
CTRIA3   542     1       92      362     93      0.
CTRIA3   543     1       62      368     73      0.
CTRIA3   544     1       366     73      368     0.
CTRIA3   545     1       368     367     366     0.
CTRIA3   546     1       364     366     367     0.
CTRIA3   547     1       367     357     364     0.
CTRIA3   548     1       73      366     72      0.
CTRIA3   549     1       365     72      366     0.
CTRIA3   550     1       366     364     365     0.
CTRIA3   551     1       72      365     71      0.
CTRIA3   552     1       65      371     64      0.
CTRIA3   553     1       369     64      371     0.
CTRIA3   554     1       371     370     369     0.
CTRIA3   555     1       367     369     370     0.
CTRIA3   556     1       370     357     367     0.
CTRIA3   557     1       64      369     63      0.
CTRIA3   558     1       368     63      369     0.
CTRIA3   559     1       369     367     368     0.
CTRIA3   560     1       63      368     62      0.
CTRIA3   561     1       99      374     100     0.
CTRIA3   562     1       372     100     374     0.
CTRIA3   563     1       374     373     372     0.
CTRIA3   564     1       370     372     373     0.
CTRIA3   565     1       373     357     370     0.
CTRIA3   566     1       100     372     101     0.
CTRIA3   567     1       371     101     372     0.
CTRIA3   568     1       372     370     371     0.
CTRIA3   569     1       101     371     65      0.
CTRIA3   570     1       96      359     97      0.
CTRIA3   571     1       375     97      359     0.
CTRIA3   572     1       359     358     375     0.
CTRIA3   573     1       373     375     358     0.
CTRIA3   574     1       358     357     373     0.
CTRIA3   575     1       97      375     98      0.
CTRIA3   576     1       374     98      375     0.
CTRIA3   577     1       375     373     374     0.
CTRIA3   578     1       98      374     99      0.
CTRIA3   579     1       379     105     381     0.
CTRIA3   580     1       381     380     379     0.
CTRIA3   581     1       377     379     380     0.
CTRIA3   582     1       380     376     377     0.
CTRIA3   583     1       105     379     106     0.
CTRIA3   584     1       378     106     379     0.
CTRIA3   585     1       379     377     378     0.
CTRIA3   586     1       106     378     107     0.
CTRIA3   587     1       79      384     102     0.
CTRIA3   588     1       382     102     384     0.
CTRIA3   589     1       384     383     382     0.
CTRIA3   590     1       380     382     383     0.
CTRIA3   591     1       383     376     380     0.
CTRIA3   592     1       102     382     103     0.
CTRIA3   593     1       381     103     382     0.
CTRIA3   594     1       382     380     381     0.
CTRIA3   595     1       103     381     104     0.
CTRIA3   596     1       68      387     81      0.
CTRIA3   597     1       385     81      387     0.
CTRIA3   598     1       387     386     385     0.
CTRIA3   599     1       383     385     386     0.
CTRIA3   600     1       386     376     383     0.
CTRIA3   601     1       81      385     80      0.
CTRIA3   602     1       384     80      385     0.
CTRIA3   603     1       385     383     384     0.
CTRIA3   604     1       80      384     79      0.
CTRIA3   605     1       71      390     70      0.
CTRIA3   606     1       388     70      390     0.
CTRIA3   607     1       390     389     388     0.
CTRIA3   608     1       386     388     389     0.
CTRIA3   609     1       389     376     386     0.
CTRIA3   610     1       70      388     69      0.
CTRIA3   611     1       387     69      388     0.
CTRIA3   612     1       388     386     387     0.
CTRIA3   613     1       69      387     68      0.
CTRIA3   614     1       93      393     92      0.
CTRIA3   615     1       391     92      393     0.
CTRIA3   616     1       393     392     391     0.
CTRIA3   617     1       389     391     392     0.
CTRIA3   618     1       392     376     389     0.
CTRIA3   619     1       92      391     91      0.
CTRIA3   620     1       390     91      391     0.
CTRIA3   621     1       391     389     390     0.
CTRIA3   622     1       91      390     71      0.
CTRIA3   623     1       107     378     108     0.
CTRIA3   624     1       394     108     378     0.
CTRIA3   625     1       378     377     394     0.
CTRIA3   626     1       392     394     377     0.
CTRIA3   627     1       377     376     392     0.
CTRIA3   628     1       108     394     109     0.
CTRIA3   629     1       393     109     394     0.
CTRIA3   630     1       394     392     393     0.
CTRIA3   631     1       109     393     93      0.
CTRIA3   632     1       129     400     146     0.
CTRIA3   633     1       398     146     400     0.
CTRIA3   634     1       400     399     398     0.
CTRIA3   635     1       396     398     399     0.
CTRIA3   636     1       399     395     396     0.
CTRIA3   637     1       146     398     147     0.
CTRIA3   638     1       398     396     397     0.
CTRIA3   639     1       87      403     110     0.
CTRIA3   640     1       401     110     403     0.
CTRIA3   641     1       403     402     401     0.
CTRIA3   642     1       399     401     402     0.
CTRIA3   643     1       402     395     399     0.
CTRIA3   644     1       110     401     111     0.
CTRIA3   645     1       400     111     401     0.
CTRIA3   646     1       401     399     400     0.
CTRIA3   647     1       111     400     129     0.
CTRIA3   648     1       76      406     89      0.
CTRIA3   649     1       404     89      406     0.
CTRIA3   650     1       406     405     404     0.
CTRIA3   651     1       402     404     405     0.
CTRIA3   652     1       405     395     402     0.
CTRIA3   653     1       89      404     88      0.
CTRIA3   654     1       403     88      404     0.
CTRIA3   655     1       404     402     403     0.
CTRIA3   656     1       88      403     87      0.
CTRIA3   657     1       79      409     78      0.
CTRIA3   658     1       407     78      409     0.
CTRIA3   659     1       409     408     407     0.
CTRIA3   660     1       405     407     408     0.
CTRIA3   661     1       408     395     405     0.
CTRIA3   662     1       78      407     77      0.
CTRIA3   663     1       406     77      407     0.
CTRIA3   664     1       407     405     406     0.
CTRIA3   665     1       77      406     76      0.
CTRIA3   666     1       104     412     103     0.
CTRIA3   667     1       410     103     412     0.
CTRIA3   668     1       412     411     410     0.
CTRIA3   669     1       408     410     411     0.
CTRIA3   670     1       411     395     408     0.
CTRIA3   671     1       103     410     102     0.
CTRIA3   672     1       409     102     410     0.
CTRIA3   673     1       410     408     409     0.
CTRIA3   674     1       102     409     79      0.
CTRIA3   675     1       413     112     397     0.
CTRIA3   676     1       397     396     413     0.
CTRIA3   677     1       411     413     396     0.
CTRIA3   678     1       396     395     411     0.
CTRIA3   679     1       112     413     113     0.
CTRIA3   680     1       412     113     413     0.
CTRIA3   681     1       413     411     412     0.
CTRIA3   682     1       113     412     104     0.
CTRIA3   683     1       84      414     90      0.
CTRIA3   684     1       141     90      414     0.
CTRIA3   685     1       414     142     141     0.
CTRIA3   686     1       90      141     128     0.
CTRIA3   687     1       87      417     86      0.
CTRIA3   688     1       415     86      417     0.
CTRIA3   689     1       417     416     415     0.
CTRIA3   690     1       142     415     416     0.
CTRIA3   691     1       416     143     142     0.
CTRIA3   692     1       86      415     85      0.
CTRIA3   693     1       414     85      415     0.
CTRIA3   694     1       415     142     414     0.
CTRIA3   695     1       85      414     84      0.
CTRIA3   696     1       129     145     111     0.
CTRIA3   697     1       418     111     145     0.
CTRIA3   698     1       145     144     418     0.
CTRIA3   699     1       416     418     144     0.
CTRIA3   700     1       144     143     416     0.
CTRIA3   701     1       111     418     110     0.
CTRIA3   702     1       417     110     418     0.
CTRIA3   703     1       418     416     417     0.
CTRIA3   704     1       110     417     87      0.
CTRIA3   705     1       126     167     161     0.
CTRIA3   706     1       126     125     167     0.
CTRIA3   707     1       120     178     119     0.
CTRIA3   708     1       120     171     178     0.
CTRIA3   709     1       272     127     135     0.
CTRIA3   710     1       133     272     135     0.
CTRIA3   711     1       398     397     147     0.
CTRIA3   712     1       130     147     397     0.
CTRIA3   713     1       112     130     397     0.
CTRIA3   714     1       420     160     159     0.
CTRIA3   715     1       160     420     419     0.
CTRIA3   716     1       159     421     420     0.
CTRIA3   717     1       96      97      426     0.
CTRIA3   718     1       424     426     97      0.
CTRIA3   719     1       426     424     425     0.
CTRIA3   720     1       422     425     424     0.
CTRIA3   721     1       425     422     419     0.
CTRIA3   722     1       97      98      424     0.
CTRIA3   723     1       423     424     98      0.
CTRIA3   724     1       424     423     422     0.
CTRIA3   725     1       98      99      423     0.
CTRIA3   726     1       132     115     421     0.
CTRIA3   727     1       427     421     115     0.
CTRIA3   728     1       421     427     420     0.
CTRIA3   729     1       425     420     427     0.
CTRIA3   730     1       420     425     419     0.
CTRIA3   731     1       115     114     427     0.
CTRIA3   732     1       426     427     114     0.
CTRIA3   733     1       427     426     425     0.
CTRIA3   734     1       114     96      426     0.
CTRIA3   735     1       155     154     428     0.
CTRIA3   736     1       157     156     429     0.
CTRIA3   737     1       155     429     156     0.
CTRIA3   738     1       429     155     428     0.
CTRIA3   739     1       96      114     432     0.
CTRIA3   740     1       430     432     114     0.
CTRIA3   741     1       432     430     431     0.
CTRIA3   742     1       429     431     430     0.
CTRIA3   743     1       431     429     428     0.
CTRIA3   744     1       114     115     430     0.
CTRIA3   745     1       157     430     115     0.
CTRIA3   746     1       430     157     429     0.
CTRIA3   747     1       115     132     157     0.
CTRIA3   748     1       93      94      435     0.
CTRIA3   749     1       433     435     94      0.
CTRIA3   750     1       435     433     434     0.
CTRIA3   751     1       431     434     433     0.
CTRIA3   752     1       434     431     428     0.
CTRIA3   753     1       94      95      433     0.
CTRIA3   754     1       432     433     95      0.
CTRIA3   755     1       433     432     431     0.
CTRIA3   756     1       95      96      432     0.
CTRIA3   757     1       107     108     438     0.
CTRIA3   758     1       436     438     108     0.
CTRIA3   759     1       438     436     437     0.
CTRIA3   760     1       434     437     436     0.
CTRIA3   761     1       437     434     428     0.
CTRIA3   762     1       108     109     436     0.
CTRIA3   763     1       435     436     109     0.
CTRIA3   764     1       436     435     434     0.
CTRIA3   765     1       109     93      435     0.
CTRIA3   766     1       439     153     131     0.
CTRIA3   767     1       153     439     154     0.
CTRIA3   768     1       437     154     439     0.
CTRIA3   769     1       154     437     428     0.
CTRIA3   770     1       131     116     439     0.
CTRIA3   771     1       438     439     116     0.
CTRIA3   772     1       439     438     437     0.
CTRIA3   773     1       116     107     438     0.
CTRIA3   774     1       107     116     440     0.
CTRIA3   775     1       152     440     116     0.
CTRIA3   776     1       440     152     151     0.
CTRIA3   777     1       116     131     152     0.
CTRIA3   778     1       104     105     443     0.
CTRIA3   779     1       441     443     105     0.
CTRIA3   780     1       443     441     442     0.
CTRIA3   781     1       151     442     441     0.
CTRIA3   782     1       442     151     150     0.
CTRIA3   783     1       105     106     441     0.
CTRIA3   784     1       440     441     106     0.
CTRIA3   785     1       441     440     151     0.
CTRIA3   786     1       106     107     440     0.
CTRIA3   787     1       130     112     148     0.
CTRIA3   788     1       444     148     112     0.
CTRIA3   789     1       148     444     149     0.
CTRIA3   790     1       442     149     444     0.
CTRIA3   791     1       149     442     150     0.
CTRIA3   792     1       112     113     444     0.
CTRIA3   793     1       443     444     113     0.
CTRIA3   794     1       444     443     442     0.
CTRIA3   795     1       113     104     443     0.
CTRIA3   796     1       421     158     132     0.
CTRIA3   797     1       159     158     421     0.
CQUAD4   798     1       159     160     445     446     0.
CQUAD4   799     1       134     133     447     448     0.
CQUAD4   800     1       133     135     449     447     0.
CQUAD4   801     1       135     127     450     449     0.
CQUAD4   802     1       127     136     451     450     0.
CQUAD4   803     1       136     137     452     451     0.
CQUAD4   804     1       137     138     453     452     0.
CQUAD4   805     1       138     139     454     453     0.
CQUAD4   806     1       139     140     455     454     0.
CQUAD4   807     1       140     128     456     455     0.
CQUAD4   808     1       128     141     457     456     0.
CQUAD4   809     1       141     142     458     457     0.
CQUAD4   810     1       142     143     459     458     0.
CQUAD4   811     1       143     144     460     459     0.
CQUAD4   812     1       144     145     461     460     0.
CQUAD4   813     1       145     129     462     461     0.
CQUAD4   814     1       129     146     463     462     0.
CQUAD4   815     1       146     147     464     463     0.
CQUAD4   816     1       147     130     465     464     0.
CQUAD4   817     1       130     148     466     465     0.
CQUAD4   818     1       148     149     467     466     0.
CQUAD4   819     1       149     150     468     467     0.
CQUAD4   820     1       150     151     469     468     0.
CQUAD4   821     1       151     152     470     469     0.
CQUAD4   822     1       152     131     471     470     0.
CQUAD4   823     1       131     153     472     471     0.
CQUAD4   824     1       153     154     473     472     0.
CQUAD4   825     1       154     155     474     473     0.
CQUAD4   826     1       155     156     475     474     0.
CQUAD4   827     1       156     157     476     475     0.
CQUAD4   828     1       157     132     477     476     0.
CQUAD4   829     1       132     158     478     477     0.
CQUAD4   830     1       158     159     446     478     0.
CTRIA3   831     1       479     604     480     0.
CTRIA3   832     1       602     480     604     0.
CTRIA3   833     1       604     603     602     0.
CTRIA3   834     1       600     602     603     0.
CTRIA3   835     1       603     599     600     0.
CTRIA3   836     1       480     602     481     0.
CTRIA3   837     1       601     481     602     0.
CTRIA3   838     1       602     600     601     0.
CTRIA3   839     1       481     601     482     0.
CTRIA3   840     1       558     606     564     0.
CTRIA3   841     1       565     564     606     0.
CTRIA3   842     1       606     605     565     0.
CTRIA3   843     1       482     601     483     0.
CTRIA3   844     1       607     483     601     0.
CTRIA3   845     1       601     600     607     0.
CTRIA3   846     1       605     607     600     0.
CTRIA3   847     1       600     599     605     0.
CTRIA3   848     1       483     607     484     0.
CTRIA3   849     1       606     484     607     0.
CTRIA3   850     1       607     605     606     0.
CTRIA3   851     1       484     606     558     0.
CTRIA3   852     1       488     612     489     0.
CTRIA3   853     1       610     489     612     0.
CTRIA3   854     1       612     611     610     0.
CTRIA3   855     1       165     610     611     0.
CTRIA3   856     1       611     161     165     0.
CTRIA3   857     1       489     610     490     0.
CTRIA3   858     1       166     490     610     0.
CTRIA3   859     1       610     165     166     0.
CTRIA3   860     1       490     166     1       0.
CTRIA3   861     1       493     621     494     0.
CTRIA3   862     1       559     615     486     0.
CTRIA3   863     1       613     486     615     0.
CTRIA3   864     1       615     614     613     0.
CTRIA3   865     1       611     613     614     0.
CTRIA3   866     1       614     161     611     0.
CTRIA3   867     1       486     613     487     0.
CTRIA3   868     1       612     487     613     0.
CTRIA3   869     1       613     611     612     0.
CTRIA3   870     1       487     612     488     0.
CTRIA3   871     1       615     561     560     0.
CTRIA3   872     1       560     614     615     0.
CTRIA3   873     1       561     615     559     0.
CTRIA3   874     1       619     494     621     0.
CTRIA3   875     1       621     620     619     0.
CTRIA3   876     1       617     619     620     0.
CTRIA3   877     1       620     616     617     0.
CTRIA3   878     1       494     619     495     0.
CTRIA3   879     1       618     495     619     0.
CTRIA3   880     1       619     617     618     0.
CTRIA3   881     1       482     624     491     0.
CTRIA3   882     1       622     491     624     0.
CTRIA3   883     1       624     623     622     0.
CTRIA3   884     1       620     622     623     0.
CTRIA3   885     1       623     616     620     0.
CTRIA3   886     1       491     622     492     0.
CTRIA3   887     1       621     492     622     0.
CTRIA3   888     1       622     620     621     0.
CTRIA3   889     1       492     621     493     0.
CTRIA3   890     1       558     627     484     0.
CTRIA3   891     1       625     484     627     0.
CTRIA3   892     1       627     626     625     0.
CTRIA3   893     1       623     625     626     0.
CTRIA3   894     1       626     616     623     0.
CTRIA3   895     1       484     625     483     0.
CTRIA3   896     1       624     483     625     0.
CTRIA3   897     1       625     623     624     0.
CTRIA3   898     1       483     624     482     0.
CTRIA3   899     1       559     630     562     0.
CTRIA3   900     1       628     562     630     0.
CTRIA3   901     1       630     629     628     0.
CTRIA3   902     1       626     628     629     0.
CTRIA3   903     1       629     616     626     0.
CTRIA3   904     1       562     628     563     0.
CTRIA3   905     1       627     563     628     0.
CTRIA3   906     1       628     626     627     0.
CTRIA3   907     1       563     627     558     0.
CTRIA3   908     1       488     633     487     0.
CTRIA3   909     1       631     487     633     0.
CTRIA3   910     1       633     632     631     0.
CTRIA3   911     1       629     631     632     0.
CTRIA3   912     1       632     616     629     0.
CTRIA3   913     1       487     631     486     0.
CTRIA3   914     1       630     486     631     0.
CTRIA3   915     1       631     629     630     0.
CTRIA3   916     1       486     630     559     0.
CTRIA3   917     1       618     617     634     0.
CTRIA3   918     1       632     634     617     0.
CTRIA3   919     1       617     616     632     0.
CTRIA3   920     1       633     496     634     0.
CTRIA3   921     1       634     632     633     0.
CTRIA3   922     1       496     633     488     0.
CTRIA3   923     1       499     640     500     0.
CTRIA3   924     1       638     500     640     0.
CTRIA3   925     1       640     639     638     0.
CTRIA3   926     1       636     638     639     0.
CTRIA3   927     1       639     635     636     0.
CTRIA3   928     1       500     638     501     0.
CTRIA3   929     1       637     501     638     0.
CTRIA3   930     1       638     636     637     0.
CTRIA3   931     1       501     637     502     0.
CTRIA3   932     1       485     643     497     0.
CTRIA3   933     1       641     497     643     0.
CTRIA3   934     1       643     642     641     0.
CTRIA3   935     1       639     641     642     0.
CTRIA3   936     1       642     635     639     0.
CTRIA3   937     1       497     641     498     0.
CTRIA3   938     1       640     498     641     0.
CTRIA3   939     1       641     639     640     0.
CTRIA3   940     1       498     640     499     0.
CTRIA3   941     1       479     646     608     0.
CTRIA3   942     1       644     608     646     0.
CTRIA3   943     1       646     645     644     0.
CTRIA3   944     1       642     644     645     0.
CTRIA3   945     1       645     635     642     0.
CTRIA3   946     1       608     644     609     0.
CTRIA3   947     1       643     609     644     0.
CTRIA3   948     1       644     642     643     0.
CTRIA3   949     1       609     643     485     0.
CTRIA3   950     1       482     649     481     0.
CTRIA3   951     1       647     481     649     0.
CTRIA3   952     1       649     648     647     0.
CTRIA3   953     1       645     647     648     0.
CTRIA3   954     1       648     635     645     0.
CTRIA3   955     1       481     647     480     0.
CTRIA3   956     1       646     480     647     0.
CTRIA3   957     1       647     645     646     0.
CTRIA3   958     1       480     646     479     0.
CTRIA3   959     1       493     652     492     0.
CTRIA3   960     1       650     492     652     0.
CTRIA3   961     1       652     651     650     0.
CTRIA3   962     1       648     650     651     0.
CTRIA3   963     1       651     635     648     0.
CTRIA3   964     1       492     650     491     0.
CTRIA3   965     1       649     491     650     0.
CTRIA3   966     1       650     648     649     0.
CTRIA3   967     1       491     649     482     0.
CTRIA3   968     1       502     637     503     0.
CTRIA3   969     1       653     503     637     0.
CTRIA3   970     1       637     636     653     0.
CTRIA3   971     1       651     653     636     0.
CTRIA3   972     1       636     635     651     0.
CTRIA3   973     1       503     653     504     0.
CTRIA3   974     1       652     504     653     0.
CTRIA3   975     1       653     651     652     0.
CTRIA3   976     1       504     652     493     0.
CTRIA3   977     1       505     659     506     0.
CTRIA3   978     1       657     506     659     0.
CTRIA3   979     1       659     658     657     0.
CTRIA3   980     1       655     657     658     0.
CTRIA3   981     1       658     654     655     0.
CTRIA3   982     1       506     657     507     0.
CTRIA3   983     1       656     507     657     0.
CTRIA3   984     1       657     655     656     0.
CTRIA3   985     1       507     656     508     0.
CTRIA3   986     1       499     664     498     0.
CTRIA3   987     1       662     498     664     0.
CTRIA3   988     1       664     663     662     0.
CTRIA3   989     1       660     662     663     0.
CTRIA3   990     1       663     654     660     0.
CTRIA3   991     1       498     662     497     0.
CTRIA3   992     1       661     497     662     0.
CTRIA3   993     1       662     660     661     0.
CTRIA3   994     1       497     661     485     0.
CTRIA3   995     1       508     656     509     0.
CTRIA3   996     1       665     509     656     0.
CTRIA3   997     1       656     655     665     0.
CTRIA3   998     1       663     665     655     0.
CTRIA3   999     1       655     654     663     0.
CTRIA3   1000    1       664     510     665     0.
CTRIA3   1001    1       665     663     664     0.
CTRIA3   1002    1       510     664     499     0.
CTRIA3   1003    1       514     676     515     0.
CTRIA3   1004    1       488     668     496     0.
CTRIA3   1005    1       1       670     490     0.
CTRIA3   1006    1       669     490     670     0.
CTRIA3   1007    1       490     669     489     0.
CTRIA3   1008    1       668     489     669     0.
CTRIA3   1009    1       489     668     488     0.
CTRIA3   1010    1       170     670     1       0.
CTRIA3   1011    1       674     515     676     0.
CTRIA3   1012    1       676     675     674     0.
CTRIA3   1013    1       672     674     675     0.
CTRIA3   1014    1       675     671     672     0.
CTRIA3   1015    1       515     674     516     0.
CTRIA3   1016    1       673     516     674     0.
CTRIA3   1017    1       674     672     673     0.
CTRIA3   1018    1       502     679     512     0.
CTRIA3   1019    1       677     512     679     0.
CTRIA3   1020    1       679     678     677     0.
CTRIA3   1021    1       675     677     678     0.
CTRIA3   1022    1       678     671     675     0.
CTRIA3   1023    1       512     677     513     0.
CTRIA3   1024    1       676     513     677     0.
CTRIA3   1025    1       677     675     676     0.
CTRIA3   1026    1       513     676     514     0.
CTRIA3   1027    1       493     682     504     0.
CTRIA3   1028    1       680     504     682     0.
CTRIA3   1029    1       682     681     680     0.
CTRIA3   1030    1       678     680     681     0.
CTRIA3   1031    1       681     671     678     0.
CTRIA3   1032    1       504     680     503     0.
CTRIA3   1033    1       679     503     680     0.
CTRIA3   1034    1       680     678     679     0.
CTRIA3   1035    1       503     679     502     0.
CTRIA3   1036    1       683     495     685     0.
CTRIA3   1037    1       685     684     683     0.
CTRIA3   1038    1       681     683     684     0.
CTRIA3   1039    1       684     671     681     0.
CTRIA3   1040    1       495     683     494     0.
CTRIA3   1041    1       682     494     683     0.
CTRIA3   1042    1       683     681     682     0.
CTRIA3   1043    1       494     682     493     0.
CTRIA3   1044    1       686     671     684     0.
CTRIA3   1045    1       672     671     686     0.
CTRIA3   1046    1       519     692     520     0.
CTRIA3   1047    1       690     520     692     0.
CTRIA3   1048    1       692     691     690     0.
CTRIA3   1049    1       688     690     691     0.
CTRIA3   1050    1       691     687     688     0.
CTRIA3   1051    1       520     690     521     0.
CTRIA3   1052    1       689     521     690     0.
CTRIA3   1053    1       690     688     689     0.
CTRIA3   1054    1       521     689     522     0.
CTRIA3   1055    1       508     695     517     0.
CTRIA3   1056    1       693     517     695     0.
CTRIA3   1057    1       695     694     693     0.
CTRIA3   1058    1       691     693     694     0.
CTRIA3   1059    1       694     687     691     0.
CTRIA3   1060    1       517     693     518     0.
CTRIA3   1061    1       692     518     693     0.
CTRIA3   1062    1       693     691     692     0.
CTRIA3   1063    1       518     692     519     0.
CTRIA3   1064    1       499     698     510     0.
CTRIA3   1065    1       696     510     698     0.
CTRIA3   1066    1       698     697     696     0.
CTRIA3   1067    1       694     696     697     0.
CTRIA3   1068    1       697     687     694     0.
CTRIA3   1069    1       695     509     696     0.
CTRIA3   1070    1       696     694     695     0.
CTRIA3   1071    1       509     695     508     0.
CTRIA3   1072    1       502     701     501     0.
CTRIA3   1073    1       699     501     701     0.
CTRIA3   1074    1       701     700     699     0.
CTRIA3   1075    1       697     699     700     0.
CTRIA3   1076    1       700     687     697     0.
CTRIA3   1077    1       501     699     500     0.
CTRIA3   1078    1       698     500     699     0.
CTRIA3   1079    1       699     697     698     0.
CTRIA3   1080    1       500     698     499     0.
CTRIA3   1081    1       514     704     513     0.
CTRIA3   1082    1       702     513     704     0.
CTRIA3   1083    1       704     703     702     0.
CTRIA3   1084    1       700     702     703     0.
CTRIA3   1085    1       703     687     700     0.
CTRIA3   1086    1       513     702     512     0.
CTRIA3   1087    1       701     512     702     0.
CTRIA3   1088    1       702     700     701     0.
CTRIA3   1089    1       512     701     502     0.
CTRIA3   1090    1       522     689     523     0.
CTRIA3   1091    1       705     523     689     0.
CTRIA3   1092    1       689     688     705     0.
CTRIA3   1093    1       703     705     688     0.
CTRIA3   1094    1       688     687     703     0.
CTRIA3   1095    1       523     705     524     0.
CTRIA3   1096    1       704     524     705     0.
CTRIA3   1097    1       705     703     704     0.
CTRIA3   1098    1       524     704     514     0.
CTRIA3   1099    1       527     711     528     0.
CTRIA3   1100    1       709     528     711     0.
CTRIA3   1101    1       711     710     709     0.
CTRIA3   1102    1       707     709     710     0.
CTRIA3   1103    1       710     706     707     0.
CTRIA3   1104    1       528     709     529     0.
CTRIA3   1105    1       708     529     709     0.
CTRIA3   1106    1       709     707     708     0.
CTRIA3   1107    1       529     708     530     0.
CTRIA3   1108    1       511     714     525     0.
CTRIA3   1109    1       712     525     714     0.
CTRIA3   1110    1       714     713     712     0.
CTRIA3   1111    1       710     712     713     0.
CTRIA3   1112    1       713     706     710     0.
CTRIA3   1113    1       711     526     712     0.
CTRIA3   1114    1       712     710     711     0.
CTRIA3   1115    1       526     711     527     0.
CTRIA3   1116    1       505     717     666     0.
CTRIA3   1117    1       715     666     717     0.
CTRIA3   1118    1       717     716     715     0.
CTRIA3   1119    1       713     715     716     0.
CTRIA3   1120    1       716     706     713     0.
CTRIA3   1121    1       666     715     667     0.
CTRIA3   1122    1       714     667     715     0.
CTRIA3   1123    1       715     713     714     0.
CTRIA3   1124    1       667     714     511     0.
CTRIA3   1125    1       508     720     507     0.
CTRIA3   1126    1       718     507     720     0.
CTRIA3   1127    1       720     719     718     0.
CTRIA3   1128    1       716     718     719     0.
CTRIA3   1129    1       719     706     716     0.
CTRIA3   1130    1       507     718     506     0.
CTRIA3   1131    1       717     506     718     0.
CTRIA3   1132    1       718     716     717     0.
CTRIA3   1133    1       506     717     505     0.
CTRIA3   1134    1       519     723     518     0.
CTRIA3   1135    1       721     518     723     0.
CTRIA3   1136    1       723     722     721     0.
CTRIA3   1137    1       719     721     722     0.
CTRIA3   1138    1       722     706     719     0.
CTRIA3   1139    1       518     721     517     0.
CTRIA3   1140    1       720     517     721     0.
CTRIA3   1141    1       721     719     720     0.
CTRIA3   1142    1       517     720     508     0.
CTRIA3   1143    1       530     708     531     0.
CTRIA3   1144    1       724     531     708     0.
CTRIA3   1145    1       708     707     724     0.
CTRIA3   1146    1       722     724     707     0.
CTRIA3   1147    1       707     706     722     0.
CTRIA3   1148    1       531     724     532     0.
CTRIA3   1149    1       723     532     724     0.
CTRIA3   1150    1       724     722     723     0.
CTRIA3   1151    1       532     723     519     0.
CTRIA3   1152    1       726     573     574     0.
CTRIA3   1153    1       574     725     726     0.
CTRIA3   1154    1       573     726     727     0.
CTRIA3   1155    1       527     732     526     0.
CTRIA3   1156    1       730     526     732     0.
CTRIA3   1157    1       732     731     730     0.
CTRIA3   1158    1       728     730     731     0.
CTRIA3   1159    1       731     725     728     0.
CTRIA3   1160    1       729     525     730     0.
CTRIA3   1161    1       730     728     729     0.
CTRIA3   1162    1       525     729     511     0.
CTRIA3   1163    1       567     727     533     0.
CTRIA3   1164    1       733     533     727     0.
CTRIA3   1165    1       727     726     733     0.
CTRIA3   1166    1       731     733     726     0.
CTRIA3   1167    1       726     725     731     0.
CTRIA3   1168    1       533     733     534     0.
CTRIA3   1169    1       732     534     733     0.
CTRIA3   1170    1       733     731     732     0.
CTRIA3   1171    1       534     732     527     0.
CTRIA3   1172    1       537     739     538     0.
CTRIA3   1173    1       737     538     739     0.
CTRIA3   1174    1       739     738     737     0.
CTRIA3   1175    1       735     737     738     0.
CTRIA3   1176    1       738     734     735     0.
CTRIA3   1177    1       538     737     539     0.
CTRIA3   1178    1       736     539     737     0.
CTRIA3   1179    1       737     735     736     0.
CTRIA3   1180    1       522     742     535     0.
CTRIA3   1181    1       740     535     742     0.
CTRIA3   1182    1       742     741     740     0.
CTRIA3   1183    1       738     740     741     0.
CTRIA3   1184    1       741     734     738     0.
CTRIA3   1185    1       535     740     536     0.
CTRIA3   1186    1       739     536     740     0.
CTRIA3   1187    1       740     738     739     0.
CTRIA3   1188    1       536     739     537     0.
CTRIA3   1189    1       514     745     524     0.
CTRIA3   1190    1       743     524     745     0.
CTRIA3   1191    1       745     744     743     0.
CTRIA3   1192    1       741     743     744     0.
CTRIA3   1193    1       744     734     741     0.
CTRIA3   1194    1       524     743     523     0.
CTRIA3   1195    1       742     523     743     0.
CTRIA3   1196    1       743     741     742     0.
CTRIA3   1197    1       523     742     522     0.
CTRIA3   1198    1       746     516     748     0.
CTRIA3   1199    1       748     747     746     0.
CTRIA3   1200    1       744     746     747     0.
CTRIA3   1201    1       747     734     744     0.
CTRIA3   1202    1       516     746     515     0.
CTRIA3   1203    1       745     515     746     0.
CTRIA3   1204    1       746     744     745     0.
CTRIA3   1205    1       515     745     514     0.
CTRIA3   1206    1       749     734     747     0.
CTRIA3   1207    1       735     734     749     0.
CTRIA3   1208    1       542     755     543     0.
CTRIA3   1209    1       753     543     755     0.
CTRIA3   1210    1       755     754     753     0.
CTRIA3   1211    1       751     753     754     0.
CTRIA3   1212    1       754     750     751     0.
CTRIA3   1213    1       543     753     544     0.
CTRIA3   1214    1       752     544     753     0.
CTRIA3   1215    1       753     751     752     0.
CTRIA3   1216    1       544     752     545     0.
CTRIA3   1217    1       530     758     540     0.
CTRIA3   1218    1       756     540     758     0.
CTRIA3   1219    1       758     757     756     0.
CTRIA3   1220    1       754     756     757     0.
CTRIA3   1221    1       757     750     754     0.
CTRIA3   1222    1       540     756     541     0.
CTRIA3   1223    1       755     541     756     0.
CTRIA3   1224    1       756     754     755     0.
CTRIA3   1225    1       541     755     542     0.
CTRIA3   1226    1       519     761     532     0.
CTRIA3   1227    1       759     532     761     0.
CTRIA3   1228    1       761     760     759     0.
CTRIA3   1229    1       757     759     760     0.
CTRIA3   1230    1       760     750     757     0.
CTRIA3   1231    1       532     759     531     0.
CTRIA3   1232    1       758     531     759     0.
CTRIA3   1233    1       759     757     758     0.
CTRIA3   1234    1       531     758     530     0.
CTRIA3   1235    1       522     764     521     0.
CTRIA3   1236    1       762     521     764     0.
CTRIA3   1237    1       764     763     762     0.
CTRIA3   1238    1       760     762     763     0.
CTRIA3   1239    1       763     750     760     0.
CTRIA3   1240    1       521     762     520     0.
CTRIA3   1241    1       761     520     762     0.
CTRIA3   1242    1       762     760     761     0.
CTRIA3   1243    1       520     761     519     0.
CTRIA3   1244    1       537     767     536     0.
CTRIA3   1245    1       765     536     767     0.
CTRIA3   1246    1       767     766     765     0.
CTRIA3   1247    1       763     765     766     0.
CTRIA3   1248    1       766     750     763     0.
CTRIA3   1249    1       536     765     535     0.
CTRIA3   1250    1       764     535     765     0.
CTRIA3   1251    1       765     763     764     0.
CTRIA3   1252    1       535     764     522     0.
CTRIA3   1253    1       545     752     546     0.
CTRIA3   1254    1       768     546     752     0.
CTRIA3   1255    1       752     751     768     0.
CTRIA3   1256    1       766     768     751     0.
CTRIA3   1257    1       751     750     766     0.
CTRIA3   1258    1       546     768     547     0.
CTRIA3   1259    1       767     547     768     0.
CTRIA3   1260    1       768     766     767     0.
CTRIA3   1261    1       547     767     537     0.
CTRIA3   1262    1       578     769     579     0.
CTRIA3   1263    1       576     770     577     0.
CTRIA3   1264    1       578     577     770     0.
CTRIA3   1265    1       770     769     578     0.
CTRIA3   1266    1       527     773     534     0.
CTRIA3   1267    1       771     534     773     0.
CTRIA3   1268    1       773     772     771     0.
CTRIA3   1269    1       770     771     772     0.
CTRIA3   1270    1       772     769     770     0.
CTRIA3   1271    1       534     771     533     0.
CTRIA3   1272    1       576     533     771     0.
CTRIA3   1273    1       771     770     576     0.
CTRIA3   1274    1       533     576     567     0.
CTRIA3   1275    1       530     776     529     0.
CTRIA3   1276    1       774     529     776     0.
CTRIA3   1277    1       776     775     774     0.
CTRIA3   1278    1       772     774     775     0.
CTRIA3   1279    1       775     769     772     0.
CTRIA3   1280    1       529     774     528     0.
CTRIA3   1281    1       773     528     774     0.
CTRIA3   1282    1       774     772     773     0.
CTRIA3   1283    1       528     773     527     0.
CTRIA3   1284    1       542     779     541     0.
CTRIA3   1285    1       777     541     779     0.
CTRIA3   1286    1       779     778     777     0.
CTRIA3   1287    1       775     777     778     0.
CTRIA3   1288    1       778     769     775     0.
CTRIA3   1289    1       541     777     540     0.
CTRIA3   1290    1       776     540     777     0.
CTRIA3   1291    1       777     775     776     0.
CTRIA3   1292    1       540     776     530     0.
CTRIA3   1293    1       780     568     580     0.
CTRIA3   1294    1       580     579     780     0.
CTRIA3   1295    1       778     780     579     0.
CTRIA3   1296    1       579     769     778     0.
CTRIA3   1297    1       568     780     548     0.
CTRIA3   1298    1       779     548     780     0.
CTRIA3   1299    1       780     778     779     0.
CTRIA3   1300    1       548     779     542     0.
CTRIA3   1301    1       569     786     586     0.
CTRIA3   1302    1       784     586     786     0.
CTRIA3   1303    1       786     785     784     0.
CTRIA3   1304    1       782     784     785     0.
CTRIA3   1305    1       785     781     782     0.
CTRIA3   1306    1       586     784     587     0.
CTRIA3   1307    1       784     782     783     0.
CTRIA3   1308    1       545     789     553     0.
CTRIA3   1309    1       787     553     789     0.
CTRIA3   1310    1       789     788     787     0.
CTRIA3   1311    1       785     787     788     0.
CTRIA3   1312    1       788     781     785     0.
CTRIA3   1313    1       553     787     554     0.
CTRIA3   1314    1       786     554     787     0.
CTRIA3   1315    1       787     785     786     0.
CTRIA3   1316    1       554     786     569     0.
CTRIA3   1317    1       537     792     547     0.
CTRIA3   1318    1       790     547     792     0.
CTRIA3   1319    1       792     791     790     0.
CTRIA3   1320    1       788     790     791     0.
CTRIA3   1321    1       791     781     788     0.
CTRIA3   1322    1       547     790     546     0.
CTRIA3   1323    1       789     546     790     0.
CTRIA3   1324    1       790     788     789     0.
CTRIA3   1325    1       546     789     545     0.
CTRIA3   1326    1       793     539     795     0.
CTRIA3   1327    1       795     794     793     0.
CTRIA3   1328    1       791     793     794     0.
CTRIA3   1329    1       794     781     791     0.
CTRIA3   1330    1       539     793     538     0.
CTRIA3   1331    1       792     538     793     0.
CTRIA3   1332    1       793     791     792     0.
CTRIA3   1333    1       538     792     537     0.
CTRIA3   1334    1       796     781     794     0.
CTRIA3   1335    1       798     555     783     0.
CTRIA3   1336    1       783     782     798     0.
CTRIA3   1337    1       796     798     782     0.
CTRIA3   1338    1       782     781     796     0.
CTRIA3   1339    1       555     798     556     0.
CTRIA3   1340    1       797     556     798     0.
CTRIA3   1341    1       798     796     797     0.
CTRIA3   1342    1       556     797     549     0.
CTRIA3   1343    1       542     799     548     0.
CTRIA3   1344    1       581     548     799     0.
CTRIA3   1345    1       799     582     581     0.
CTRIA3   1346    1       548     581     568     0.
CTRIA3   1347    1       545     802     544     0.
CTRIA3   1348    1       800     544     802     0.
CTRIA3   1349    1       802     801     800     0.
CTRIA3   1350    1       582     800     801     0.
CTRIA3   1351    1       801     583     582     0.
CTRIA3   1352    1       544     800     543     0.
CTRIA3   1353    1       799     543     800     0.
CTRIA3   1354    1       800     582     799     0.
CTRIA3   1355    1       543     799     542     0.
CTRIA3   1356    1       569     585     554     0.
CTRIA3   1357    1       803     554     585     0.
CTRIA3   1358    1       585     584     803     0.
CTRIA3   1359    1       801     803     584     0.
CTRIA3   1360    1       584     583     801     0.
CTRIA3   1361    1       554     803     553     0.
CTRIA3   1362    1       802     553     803     0.
CTRIA3   1363    1       803     801     802     0.
CTRIA3   1364    1       553     802     545     0.
CTRIA3   1365    1       566     605     599     0.
CTRIA3   1366    1       566     565     605     0.
CTRIA3   1367    1       126     614     560     0.
CTRIA3   1368    1       126     161     614     0.
CTRIA3   1369    1       727     567     575     0.
CTRIA3   1370    1       573     727     575     0.
CTRIA3   1371    1       784     783     587     0.
CTRIA3   1372    1       570     587     783     0.
CTRIA3   1373    1       555     570     783     0.
CTRIA3   1374    1       595     594     804     0.
CTRIA3   1375    1       597     596     805     0.
CTRIA3   1376    1       595     805     596     0.
CTRIA3   1377    1       805     595     804     0.
CTRIA3   1378    1       808     593     571     0.
CTRIA3   1379    1       593     808     594     0.
CTRIA3   1380    1       806     594     808     0.
CTRIA3   1381    1       594     806     804     0.
CTRIA3   1382    1       571     557     808     0.
CTRIA3   1383    1       807     808     557     0.
CTRIA3   1384    1       808     807     806     0.
CTRIA3   1385    1       557     552     807     0.
CTRIA3   1386    1       552     557     809     0.
CTRIA3   1387    1       592     809     557     0.
CTRIA3   1388    1       809     592     591     0.
CTRIA3   1389    1       557     571     592     0.
CTRIA3   1390    1       549     550     812     0.
CTRIA3   1391    1       810     812     550     0.
CTRIA3   1392    1       812     810     811     0.
CTRIA3   1393    1       591     811     810     0.
CTRIA3   1394    1       811     591     590     0.
CTRIA3   1395    1       550     551     810     0.
CTRIA3   1396    1       809     810     551     0.
CTRIA3   1397    1       810     809     591     0.
CTRIA3   1398    1       551     552     809     0.
CTRIA3   1399    1       570     555     588     0.
CTRIA3   1400    1       813     588     555     0.
CTRIA3   1401    1       588     813     589     0.
CTRIA3   1402    1       811     589     813     0.
CTRIA3   1403    1       589     811     590     0.
CTRIA3   1404    1       555     556     813     0.
CTRIA3   1405    1       812     813     556     0.
CTRIA3   1406    1       813     812     811     0.
CTRIA3   1407    1       556     549     812     0.
CQUAD4   1408    1       598     134     448     814     0.
CQUAD4   1409    1       574     573     815     816     0.
CQUAD4   1410    1       573     575     817     815     0.
CQUAD4   1411    1       575     567     818     817     0.
CQUAD4   1412    1       567     576     819     818     0.
CQUAD4   1413    1       576     577     820     819     0.
CQUAD4   1414    1       577     578     821     820     0.
CQUAD4   1415    1       578     579     822     821     0.
CQUAD4   1416    1       579     580     823     822     0.
CQUAD4   1417    1       580     568     824     823     0.
CQUAD4   1418    1       568     581     825     824     0.
CQUAD4   1419    1       581     582     826     825     0.
CQUAD4   1420    1       582     583     827     826     0.
CQUAD4   1421    1       583     584     828     827     0.
CQUAD4   1422    1       584     585     829     828     0.
CQUAD4   1423    1       585     569     830     829     0.
CQUAD4   1424    1       569     586     831     830     0.
CQUAD4   1425    1       586     587     832     831     0.
CQUAD4   1426    1       587     570     833     832     0.
CQUAD4   1427    1       570     588     834     833     0.
CQUAD4   1428    1       588     589     835     834     0.
CQUAD4   1429    1       589     590     836     835     0.
CQUAD4   1430    1       590     591     837     836     0.
CQUAD4   1431    1       591     592     838     837     0.
CQUAD4   1432    1       592     571     839     838     0.
CQUAD4   1433    1       571     593     840     839     0.
CQUAD4   1434    1       593     594     841     840     0.
CQUAD4   1435    1       594     595     842     841     0.
CQUAD4   1436    1       595     596     843     842     0.
CQUAD4   1437    1       596     597     844     843     0.
CQUAD4   1438    1       597     572     845     844     0.
CTRIA3   1439    1       994     846     996     0.
CTRIA3   1440    1       996     995     994     0.
CTRIA3   1441    1       992     994     995     0.
CTRIA3   1442    1       995     991     992     0.
CTRIA3   1443    1       846     994     847     0.
CTRIA3   1444    1       993     847     994     0.
CTRIA3   1445    1       994     992     993     0.
CTRIA3   1446    1       847     993     848     0.
CTRIA3   1447    1       949     998     955     0.
CTRIA3   1448    1       956     955     998     0.
CTRIA3   1449    1       998     997     956     0.
CTRIA3   1450    1       848     993     849     0.
CTRIA3   1451    1       999     849     993     0.
CTRIA3   1452    1       993     992     999     0.
CTRIA3   1453    1       997     999     992     0.
CTRIA3   1454    1       992     991     997     0.
CTRIA3   1455    1       849     999     850     0.
CTRIA3   1456    1       998     850     999     0.
CTRIA3   1457    1       999     997     998     0.
CTRIA3   1458    1       850     998     949     0.
CTRIA3   1459    1       853     1002    854     0.
CTRIA3   1460    1       1000    854     1002    0.
CTRIA3   1461    1       1002    1001    1000    0.
CTRIA3   1462    1       603     1000    1001    0.
CTRIA3   1463    1       1001    599     603     0.
CTRIA3   1464    1       854     1000    855     0.
CTRIA3   1465    1       604     855     1000    0.
CTRIA3   1466    1       1000    603     604     0.
CTRIA3   1467    1       855     604     479     0.
CTRIA3   1468    1       858     1011    859     0.
CTRIA3   1469    1       950     1005    851     0.
CTRIA3   1470    1       1003    851     1005    0.
CTRIA3   1471    1       1005    1004    1003    0.
CTRIA3   1472    1       1001    1003    1004    0.
CTRIA3   1473    1       1004    599     1001    0.
CTRIA3   1474    1       851     1003    852     0.
CTRIA3   1475    1       1002    852     1003    0.
CTRIA3   1476    1       1003    1001    1002    0.
CTRIA3   1477    1       852     1002    853     0.
CTRIA3   1478    1       1005    952     951     0.
CTRIA3   1479    1       951     1004    1005    0.
CTRIA3   1480    1       952     1005    950     0.
CTRIA3   1481    1       1009    859     1011    0.
CTRIA3   1482    1       1011    1010    1009    0.
CTRIA3   1483    1       1007    1009    1010    0.
CTRIA3   1484    1       1010    1006    1007    0.
CTRIA3   1485    1       859     1009    860     0.
CTRIA3   1486    1       1008    860     1009    0.
CTRIA3   1487    1       1009    1007    1008    0.
CTRIA3   1488    1       860     1008    861     0.
CTRIA3   1489    1       848     1014    856     0.
CTRIA3   1490    1       1012    856     1014    0.
CTRIA3   1491    1       1014    1013    1012    0.
CTRIA3   1492    1       1010    1012    1013    0.
CTRIA3   1493    1       1013    1006    1010    0.
CTRIA3   1494    1       856     1012    857     0.
CTRIA3   1495    1       1011    857     1012    0.
CTRIA3   1496    1       1012    1010    1011    0.
CTRIA3   1497    1       857     1011    858     0.
CTRIA3   1498    1       949     1017    850     0.
CTRIA3   1499    1       1015    850     1017    0.
CTRIA3   1500    1       1017    1016    1015    0.
CTRIA3   1501    1       1013    1015    1016    0.
CTRIA3   1502    1       1016    1006    1013    0.
CTRIA3   1503    1       850     1015    849     0.
CTRIA3   1504    1       1014    849     1015    0.
CTRIA3   1505    1       1015    1013    1014    0.
CTRIA3   1506    1       849     1014    848     0.
CTRIA3   1507    1       950     1020    953     0.
CTRIA3   1508    1       1018    953     1020    0.
CTRIA3   1509    1       1020    1019    1018    0.
CTRIA3   1510    1       1016    1018    1019    0.
CTRIA3   1511    1       1019    1006    1016    0.
CTRIA3   1512    1       953     1018    954     0.
CTRIA3   1513    1       1017    954     1018    0.
CTRIA3   1514    1       1018    1016    1017    0.
CTRIA3   1515    1       954     1017    949     0.
CTRIA3   1516    1       853     1023    852     0.
CTRIA3   1517    1       1021    852     1023    0.
CTRIA3   1518    1       1023    1022    1021    0.
CTRIA3   1519    1       1019    1021    1022    0.
CTRIA3   1520    1       1022    1006    1019    0.
CTRIA3   1521    1       852     1021    851     0.
CTRIA3   1522    1       1020    851     1021    0.
CTRIA3   1523    1       1021    1019    1020    0.
CTRIA3   1524    1       851     1020    950     0.
CTRIA3   1525    1       861     1008    862     0.
CTRIA3   1526    1       1024    862     1008    0.
CTRIA3   1527    1       1008    1007    1024    0.
CTRIA3   1528    1       1022    1024    1007    0.
CTRIA3   1529    1       1007    1006    1022    0.
CTRIA3   1530    1       862     1024    863     0.
CTRIA3   1531    1       1023    863     1024    0.
CTRIA3   1532    1       1024    1022    1023    0.
CTRIA3   1533    1       863     1023    853     0.
CTRIA3   1534    1       864     1025    865     0.
CTRIA3   1535    1       848     1026    847     0.
CTRIA3   1536    1       858     1027    857     0.
CTRIA3   1537    1       856     1026    848     0.
CTRIA3   1538    1       865     1025    866     0.
CTRIA3   1539    1       1028    866     1025    0.
CTRIA3   1540    1       866     1028    867     0.
CTRIA3   1541    1       1027    867     1028    0.
CTRIA3   1542    1       867     1027    858     0.
CTRIA3   1543    1       870     1034    871     0.
CTRIA3   1544    1       1032    871     1034    0.
CTRIA3   1545    1       1034    1033    1032    0.
CTRIA3   1546    1       1030    1032    1033    0.
CTRIA3   1547    1       1033    1029    1030    0.
CTRIA3   1548    1       871     1032    872     0.
CTRIA3   1549    1       1031    872     1032    0.
CTRIA3   1550    1       1032    1030    1031    0.
CTRIA3   1551    1       872     1031    873     0.
CTRIA3   1552    1       878     1053    879     0.
CTRIA3   1553    1       861     1037    868     0.
CTRIA3   1554    1       1035    868     1037    0.
CTRIA3   1555    1       1037    1036    1035    0.
CTRIA3   1556    1       1033    1035    1036    0.
CTRIA3   1557    1       1036    1029    1033    0.
CTRIA3   1558    1       868     1035    869     0.
CTRIA3   1559    1       1034    869     1035    0.
CTRIA3   1560    1       1035    1033    1034    0.
CTRIA3   1561    1       869     1034    870     0.
CTRIA3   1562    1       853     1040    863     0.
CTRIA3   1563    1       1038    863     1040    0.
CTRIA3   1564    1       1040    1039    1038    0.
CTRIA3   1565    1       1036    1038    1039    0.
CTRIA3   1566    1       1039    1029    1036    0.
CTRIA3   1567    1       863     1038    862     0.
CTRIA3   1568    1       1037    862     1038    0.
CTRIA3   1569    1       1038    1036    1037    0.
CTRIA3   1570    1       862     1037    861     0.
CTRIA3   1571    1       479     1043    855     0.
CTRIA3   1572    1       1041    855     1043    0.
CTRIA3   1573    1       1043    1042    1041    0.
CTRIA3   1574    1       1039    1041    1042    0.
CTRIA3   1575    1       1042    1029    1039    0.
CTRIA3   1576    1       855     1041    854     0.
CTRIA3   1577    1       1040    854     1041    0.
CTRIA3   1578    1       1041    1039    1040    0.
CTRIA3   1579    1       854     1040    853     0.
CTRIA3   1580    1       485     1046    609     0.
CTRIA3   1581    1       1044    609     1046    0.
CTRIA3   1582    1       1046    1045    1044    0.
CTRIA3   1583    1       1042    1044    1045    0.
CTRIA3   1584    1       1045    1029    1042    0.
CTRIA3   1585    1       609     1044    608     0.
CTRIA3   1586    1       1043    608     1044    0.
CTRIA3   1587    1       1044    1042    1043    0.
CTRIA3   1588    1       608     1043    479     0.
CTRIA3   1589    1       873     1031    874     0.
CTRIA3   1590    1       1047    874     1031    0.
CTRIA3   1591    1       1031    1030    1047    0.
CTRIA3   1592    1       1045    1047    1030    0.
CTRIA3   1593    1       1030    1029    1045    0.
CTRIA3   1594    1       874     1047    875     0.
CTRIA3   1595    1       1046    875     1047    0.
CTRIA3   1596    1       1047    1045    1046    0.
CTRIA3   1597    1       875     1046    485     0.
CTRIA3   1598    1       1051    879     1053    0.
CTRIA3   1599    1       1053    1052    1051    0.
CTRIA3   1600    1       1049    1051    1052    0.
CTRIA3   1601    1       1052    1048    1049    0.
CTRIA3   1602    1       879     1051    880     0.
CTRIA3   1603    1       1050    880     1051    0.
CTRIA3   1604    1       1051    1049    1050    0.
CTRIA3   1605    1       880     1050    881     0.
CTRIA3   1606    1       865     1056    876     0.
CTRIA3   1607    1       1054    876     1056    0.
CTRIA3   1608    1       1056    1055    1054    0.
CTRIA3   1609    1       1052    1054    1055    0.
CTRIA3   1610    1       1055    1048    1052    0.
CTRIA3   1611    1       876     1054    877     0.
CTRIA3   1612    1       1053    877     1054    0.
CTRIA3   1613    1       1054    1052    1053    0.
CTRIA3   1614    1       877     1053    878     0.
CTRIA3   1615    1       858     1059    867     0.
CTRIA3   1616    1       1057    867     1059    0.
CTRIA3   1617    1       1059    1058    1057    0.
CTRIA3   1618    1       1055    1057    1058    0.
CTRIA3   1619    1       1058    1048    1055    0.
CTRIA3   1620    1       867     1057    866     0.
CTRIA3   1621    1       1056    866     1057    0.
CTRIA3   1622    1       1057    1055    1056    0.
CTRIA3   1623    1       866     1056    865     0.
CTRIA3   1624    1       861     1062    860     0.
CTRIA3   1625    1       1060    860     1062    0.
CTRIA3   1626    1       1062    1061    1060    0.
CTRIA3   1627    1       1058    1060    1061    0.
CTRIA3   1628    1       1061    1048    1058    0.
CTRIA3   1629    1       860     1060    859     0.
CTRIA3   1630    1       1059    859     1060    0.
CTRIA3   1631    1       1060    1058    1059    0.
CTRIA3   1632    1       859     1059    858     0.
CTRIA3   1633    1       870     1065    869     0.
CTRIA3   1634    1       1063    869     1065    0.
CTRIA3   1635    1       1065    1064    1063    0.
CTRIA3   1636    1       1061    1063    1064    0.
CTRIA3   1637    1       1064    1048    1061    0.
CTRIA3   1638    1       869     1063    868     0.
CTRIA3   1639    1       1062    868     1063    0.
CTRIA3   1640    1       1063    1061    1062    0.
CTRIA3   1641    1       868     1062    861     0.
CTRIA3   1642    1       881     1050    882     0.
CTRIA3   1643    1       1066    882     1050    0.
CTRIA3   1644    1       1050    1049    1066    0.
CTRIA3   1645    1       1064    1066    1049    0.
CTRIA3   1646    1       1049    1048    1064    0.
CTRIA3   1647    1       882     1066    883     0.
CTRIA3   1648    1       1065    883     1066    0.
CTRIA3   1649    1       1066    1064    1065    0.
CTRIA3   1650    1       883     1065    870     0.
CTRIA3   1651    1       885     1072    886     0.
CTRIA3   1652    1       1070    886     1072    0.
CTRIA3   1653    1       1072    1071    1070    0.
CTRIA3   1654    1       1068    1070    1071    0.
CTRIA3   1655    1       1071    1067    1068    0.
CTRIA3   1656    1       886     1070    887     0.
CTRIA3   1657    1       1069    887     1070    0.
CTRIA3   1658    1       1070    1068    1069    0.
CTRIA3   1659    1       887     1069    888     0.
CTRIA3   1660    1       1071    1073    1074    0.
CTRIA3   1661    1       1074    1067    1071    0.
CTRIA3   1662    1       1072    884     1073    0.
CTRIA3   1663    1       1073    1071    1072    0.
CTRIA3   1664    1       884     1072    885     0.
CTRIA3   1665    1       1075    1067    1074    0.
CTRIA3   1666    1       865     1078    864     0.
CTRIA3   1667    1       1076    864     1078    0.
CTRIA3   1668    1       1078    1077    1076    0.
CTRIA3   1669    1       1075    1076    1077    0.
CTRIA3   1670    1       1077    1067    1075    0.
CTRIA3   1671    1       878     1081    877     0.
CTRIA3   1672    1       1079    877     1081    0.
CTRIA3   1673    1       1081    1080    1079    0.
CTRIA3   1674    1       1077    1079    1080    0.
CTRIA3   1675    1       1080    1067    1077    0.
CTRIA3   1676    1       877     1079    876     0.
CTRIA3   1677    1       1078    876     1079    0.
CTRIA3   1678    1       1079    1077    1078    0.
CTRIA3   1679    1       876     1078    865     0.
CTRIA3   1680    1       888     1069    889     0.
CTRIA3   1681    1       1082    889     1069    0.
CTRIA3   1682    1       1069    1068    1082    0.
CTRIA3   1683    1       1080    1082    1068    0.
CTRIA3   1684    1       1068    1067    1080    0.
CTRIA3   1685    1       889     1082    890     0.
CTRIA3   1686    1       1081    890     1082    0.
CTRIA3   1687    1       1082    1080    1081    0.
CTRIA3   1688    1       890     1081    878     0.
CTRIA3   1689    1       891     1083    892     0.
CTRIA3   1690    1       885     1084    884     0.
CTRIA3   1691    1       892     1083    893     0.
CTRIA3   1692    1       1085    893     1083    0.
CTRIA3   1693    1       893     1085    894     0.
CTRIA3   1694    1       1084    894     1085    0.
CTRIA3   1695    1       894     1084    885     0.
CTRIA3   1696    1       1086    964     965     0.
CTRIA3   1697    1       964     1086    1087    0.
CTRIA3   1698    1       958     1087    895     0.
CTRIA3   1699    1       898     1090    899     0.
CTRIA3   1700    1       1088    899     1090    0.
CTRIA3   1701    1       1090    1089    1088    0.
CTRIA3   1702    1       658     1088    1089    0.
CTRIA3   1703    1       1089    654     658     0.
CTRIA3   1704    1       899     1088    900     0.
CTRIA3   1705    1       659     900     1088    0.
CTRIA3   1706    1       1088    658     659     0.
CTRIA3   1707    1       900     659     505     0.
CTRIA3   1708    1       903     1100    904     0.
CTRIA3   1709    1       873     1093    896     0.
CTRIA3   1710    1       1091    896     1093    0.
CTRIA3   1711    1       1093    1092    1091    0.
CTRIA3   1712    1       1089    1091    1092    0.
CTRIA3   1713    1       1092    654     1089    0.
CTRIA3   1714    1       1090    897     1091    0.
CTRIA3   1715    1       1091    1089    1090    0.
CTRIA3   1716    1       897     1090    898     0.
CTRIA3   1717    1       485     661     875     0.
CTRIA3   1718    1       1094    875     661     0.
CTRIA3   1719    1       661     660     1094    0.
CTRIA3   1720    1       1092    1094    660     0.
CTRIA3   1721    1       660     654     1092    0.
CTRIA3   1722    1       875     1094    874     0.
CTRIA3   1723    1       1093    874     1094    0.
CTRIA3   1724    1       1094    1092    1093    0.
CTRIA3   1725    1       874     1093    873     0.
CTRIA3   1726    1       1098    904     1100    0.
CTRIA3   1727    1       1100    1099    1098    0.
CTRIA3   1728    1       1096    1098    1099    0.
CTRIA3   1729    1       1099    1095    1096    0.
CTRIA3   1730    1       904     1098    905     0.
CTRIA3   1731    1       1097    905     1098    0.
CTRIA3   1732    1       1098    1096    1097    0.
CTRIA3   1733    1       905     1097    906     0.
CTRIA3   1734    1       881     1103    901     0.
CTRIA3   1735    1       1101    901     1103    0.
CTRIA3   1736    1       1103    1102    1101    0.
CTRIA3   1737    1       1099    1101    1102    0.
CTRIA3   1738    1       1102    1095    1099    0.
CTRIA3   1739    1       901     1101    902     0.
CTRIA3   1740    1       1100    902     1101    0.
CTRIA3   1741    1       1101    1099    1100    0.
CTRIA3   1742    1       902     1100    903     0.
CTRIA3   1743    1       870     1106    883     0.
CTRIA3   1744    1       1104    883     1106    0.
CTRIA3   1745    1       1106    1105    1104    0.
CTRIA3   1746    1       1102    1104    1105    0.
CTRIA3   1747    1       1105    1095    1102    0.
CTRIA3   1748    1       883     1104    882     0.
CTRIA3   1749    1       1103    882     1104    0.
CTRIA3   1750    1       1104    1102    1103    0.
CTRIA3   1751    1       882     1103    881     0.
CTRIA3   1752    1       873     1109    872     0.
CTRIA3   1753    1       1107    872     1109    0.
CTRIA3   1754    1       1109    1108    1107    0.
CTRIA3   1755    1       1105    1107    1108    0.
CTRIA3   1756    1       1108    1095    1105    0.
CTRIA3   1757    1       872     1107    871     0.
CTRIA3   1758    1       1106    871     1107    0.
CTRIA3   1759    1       1107    1105    1106    0.
CTRIA3   1760    1       871     1106    870     0.
CTRIA3   1761    1       898     1112    897     0.
CTRIA3   1762    1       1110    897     1112    0.
CTRIA3   1763    1       1112    1111    1110    0.
CTRIA3   1764    1       1108    1110    1111    0.
CTRIA3   1765    1       1111    1095    1108    0.
CTRIA3   1766    1       1109    896     1110    0.
CTRIA3   1767    1       1110    1108    1109    0.
CTRIA3   1768    1       896     1109    873     0.
CTRIA3   1769    1       906     1097    907     0.
CTRIA3   1770    1       1113    907     1097    0.
CTRIA3   1771    1       1097    1096    1113    0.
CTRIA3   1772    1       1111    1113    1096    0.
CTRIA3   1773    1       1096    1095    1111    0.
CTRIA3   1774    1       907     1113    908     0.
CTRIA3   1775    1       1112    908     1113    0.
CTRIA3   1776    1       1113    1111    1112    0.
CTRIA3   1777    1       908     1112    898     0.
CTRIA3   1778    1       911     1119    912     0.
CTRIA3   1779    1       1117    912     1119    0.
CTRIA3   1780    1       1119    1118    1117    0.
CTRIA3   1781    1       1115    1117    1118    0.
CTRIA3   1782    1       1118    1114    1115    0.
CTRIA3   1783    1       912     1117    913     0.
CTRIA3   1784    1       1116    913     1117    0.
CTRIA3   1785    1       1117    1115    1116    0.
CTRIA3   1786    1       913     1116    914     0.
CTRIA3   1787    1       888     1122    909     0.
CTRIA3   1788    1       1120    909     1122    0.
CTRIA3   1789    1       1122    1121    1120    0.
CTRIA3   1790    1       1118    1120    1121    0.
CTRIA3   1791    1       1121    1114    1118    0.
CTRIA3   1792    1       909     1120    910     0.
CTRIA3   1793    1       1119    910     1120    0.
CTRIA3   1794    1       1120    1118    1119    0.
CTRIA3   1795    1       910     1119    911     0.
CTRIA3   1796    1       878     1125    890     0.
CTRIA3   1797    1       1123    890     1125    0.
CTRIA3   1798    1       1125    1124    1123    0.
CTRIA3   1799    1       1121    1123    1124    0.
CTRIA3   1800    1       1124    1114    1121    0.
CTRIA3   1801    1       890     1123    889     0.
CTRIA3   1802    1       1122    889     1123    0.
CTRIA3   1803    1       1123    1121    1122    0.
CTRIA3   1804    1       889     1122    888     0.
CTRIA3   1805    1       881     1128    880     0.
CTRIA3   1806    1       1126    880     1128    0.
CTRIA3   1807    1       1128    1127    1126    0.
CTRIA3   1808    1       1124    1126    1127    0.
CTRIA3   1809    1       1127    1114    1124    0.
CTRIA3   1810    1       880     1126    879     0.
CTRIA3   1811    1       1125    879     1126    0.
CTRIA3   1812    1       1126    1124    1125    0.
CTRIA3   1813    1       879     1125    878     0.
CTRIA3   1814    1       903     1131    902     0.
CTRIA3   1815    1       1129    902     1131    0.
CTRIA3   1816    1       1131    1130    1129    0.
CTRIA3   1817    1       1127    1129    1130    0.
CTRIA3   1818    1       1130    1114    1127    0.
CTRIA3   1819    1       902     1129    901     0.
CTRIA3   1820    1       1128    901     1129    0.
CTRIA3   1821    1       1129    1127    1128    0.
CTRIA3   1822    1       901     1128    881     0.
CTRIA3   1823    1       914     1116    915     0.
CTRIA3   1824    1       1132    915     1116    0.
CTRIA3   1825    1       1116    1115    1132    0.
CTRIA3   1826    1       1130    1132    1115    0.
CTRIA3   1827    1       1115    1114    1130    0.
CTRIA3   1828    1       915     1132    916     0.
CTRIA3   1829    1       1131    916     1132    0.
CTRIA3   1830    1       1132    1130    1131    0.
CTRIA3   1831    1       916     1131    903     0.
CTRIA3   1832    1       919     1138    920     0.
CTRIA3   1833    1       1136    920     1138    0.
CTRIA3   1834    1       1138    1137    1136    0.
CTRIA3   1835    1       1134    1136    1137    0.
CTRIA3   1836    1       1137    1133    1134    0.
CTRIA3   1837    1       920     1136    921     0.
CTRIA3   1838    1       1135    921     1136    0.
CTRIA3   1839    1       1136    1134    1135    0.
CTRIA3   1840    1       921     1135    922     0.
CTRIA3   1841    1       892     1141    917     0.
CTRIA3   1842    1       1139    917     1141    0.
CTRIA3   1843    1       1141    1140    1139    0.
CTRIA3   1844    1       1137    1139    1140    0.
CTRIA3   1845    1       1140    1133    1137    0.
CTRIA3   1846    1       917     1139    918     0.
CTRIA3   1847    1       1138    918     1139    0.
CTRIA3   1848    1       1139    1137    1138    0.
CTRIA3   1849    1       918     1138    919     0.
CTRIA3   1850    1       885     1144    894     0.
CTRIA3   1851    1       1142    894     1144    0.
CTRIA3   1852    1       1144    1143    1142    0.
CTRIA3   1853    1       1140    1142    1143    0.
CTRIA3   1854    1       1143    1133    1140    0.
CTRIA3   1855    1       894     1142    893     0.
CTRIA3   1856    1       1141    893     1142    0.
CTRIA3   1857    1       1142    1140    1141    0.
CTRIA3   1858    1       893     1141    892     0.
CTRIA3   1859    1       888     1147    887     0.
CTRIA3   1860    1       1145    887     1147    0.
CTRIA3   1861    1       1147    1146    1145    0.
CTRIA3   1862    1       1143    1145    1146    0.
CTRIA3   1863    1       1146    1133    1143    0.
CTRIA3   1864    1       887     1145    886     0.
CTRIA3   1865    1       1144    886     1145    0.
CTRIA3   1866    1       1145    1143    1144    0.
CTRIA3   1867    1       886     1144    885     0.
CTRIA3   1868    1       911     1150    910     0.
CTRIA3   1869    1       1148    910     1150    0.
CTRIA3   1870    1       1150    1149    1148    0.
CTRIA3   1871    1       1146    1148    1149    0.
CTRIA3   1872    1       1149    1133    1146    0.
CTRIA3   1873    1       910     1148    909     0.
CTRIA3   1874    1       1147    909     1148    0.
CTRIA3   1875    1       1148    1146    1147    0.
CTRIA3   1876    1       909     1147    888     0.
CTRIA3   1877    1       922     1135    923     0.
CTRIA3   1878    1       1151    923     1135    0.
CTRIA3   1879    1       1135    1134    1151    0.
CTRIA3   1880    1       1149    1151    1134    0.
CTRIA3   1881    1       1134    1133    1149    0.
CTRIA3   1882    1       923     1151    924     0.
CTRIA3   1883    1       1150    924     1151    0.
CTRIA3   1884    1       1151    1149    1150    0.
CTRIA3   1885    1       924     1150    911     0.
CTRIA3   1886    1       969     1152    970     0.
CTRIA3   1887    1       967     1153    968     0.
CTRIA3   1888    1       969     968     1153    0.
CTRIA3   1889    1       1153    1152    969     0.
CTRIA3   1890    1       1154    1152    1153    0.
CTRIA3   1891    1       895     967     958     0.
CTRIA3   1892    1       892     1157    891     0.
CTRIA3   1893    1       1155    891     1157    0.
CTRIA3   1894    1       1157    1156    1155    0.
CTRIA3   1895    1       1154    1155    1156    0.
CTRIA3   1896    1       1156    1152    1154    0.
CTRIA3   1897    1       919     1160    918     0.
CTRIA3   1898    1       1158    918     1160    0.
CTRIA3   1899    1       1160    1159    1158    0.
CTRIA3   1900    1       1156    1158    1159    0.
CTRIA3   1901    1       1159    1152    1156    0.
CTRIA3   1902    1       918     1158    917     0.
CTRIA3   1903    1       1157    917     1158    0.
CTRIA3   1904    1       1158    1156    1157    0.
CTRIA3   1905    1       917     1157    892     0.
CTRIA3   1906    1       1161    959     971     0.
CTRIA3   1907    1       971     970     1161    0.
CTRIA3   1908    1       1159    1161    970     0.
CTRIA3   1909    1       970     1152    1159    0.
CTRIA3   1910    1       959     1161    925     0.
CTRIA3   1911    1       1160    925     1161    0.
CTRIA3   1912    1       1161    1159    1160    0.
CTRIA3   1913    1       925     1160    919     0.
CTRIA3   1914    1       928     1167    929     0.
CTRIA3   1915    1       1165    929     1167    0.
CTRIA3   1916    1       1167    1166    1165    0.
CTRIA3   1917    1       1163    1165    1166    0.
CTRIA3   1918    1       1166    1162    1163    0.
CTRIA3   1919    1       929     1165    930     0.
CTRIA3   1920    1       1164    930     1165    0.
CTRIA3   1921    1       1165    1163    1164    0.
CTRIA3   1922    1       930     1164    931     0.
CTRIA3   1923    1       936     1186    937     0.
CTRIA3   1924    1       906     1170    926     0.
CTRIA3   1925    1       1168    926     1170    0.
CTRIA3   1926    1       1170    1169    1168    0.
CTRIA3   1927    1       1166    1168    1169    0.
CTRIA3   1928    1       1169    1162    1166    0.
CTRIA3   1929    1       926     1168    927     0.
CTRIA3   1930    1       1167    927     1168    0.
CTRIA3   1931    1       1168    1166    1167    0.
CTRIA3   1932    1       927     1167    928     0.
CTRIA3   1933    1       898     1173    908     0.
CTRIA3   1934    1       1171    908     1173    0.
CTRIA3   1935    1       1173    1172    1171    0.
CTRIA3   1936    1       1169    1171    1172    0.
CTRIA3   1937    1       1172    1162    1169    0.
CTRIA3   1938    1       908     1171    907     0.
CTRIA3   1939    1       1170    907     1171    0.
CTRIA3   1940    1       1171    1169    1170    0.
CTRIA3   1941    1       907     1170    906     0.
CTRIA3   1942    1       505     1176    900     0.
CTRIA3   1943    1       1174    900     1176    0.
CTRIA3   1944    1       1176    1175    1174    0.
CTRIA3   1945    1       1172    1174    1175    0.
CTRIA3   1946    1       1175    1162    1172    0.
CTRIA3   1947    1       900     1174    899     0.
CTRIA3   1948    1       1173    899     1174    0.
CTRIA3   1949    1       1174    1172    1173    0.
CTRIA3   1950    1       899     1173    898     0.
CTRIA3   1951    1       511     1179    667     0.
CTRIA3   1952    1       1177    667     1179    0.
CTRIA3   1953    1       1179    1178    1177    0.
CTRIA3   1954    1       1175    1177    1178    0.
CTRIA3   1955    1       1178    1162    1175    0.
CTRIA3   1956    1       667     1177    666     0.
CTRIA3   1957    1       1176    666     1177    0.
CTRIA3   1958    1       1177    1175    1176    0.
CTRIA3   1959    1       666     1176    505     0.
CTRIA3   1960    1       931     1164    932     0.
CTRIA3   1961    1       1180    932     1164    0.
CTRIA3   1962    1       1164    1163    1180    0.
CTRIA3   1963    1       1178    1180    1163    0.
CTRIA3   1964    1       1163    1162    1178    0.
CTRIA3   1965    1       1179    933     1180    0.
CTRIA3   1966    1       1180    1178    1179    0.
CTRIA3   1967    1       933     1179    511     0.
CTRIA3   1968    1       1184    937     1186    0.
CTRIA3   1969    1       1186    1185    1184    0.
CTRIA3   1970    1       1182    1184    1185    0.
CTRIA3   1971    1       1185    1181    1182    0.
CTRIA3   1972    1       937     1184    938     0.
CTRIA3   1973    1       1183    938     1184    0.
CTRIA3   1974    1       1184    1182    1183    0.
CTRIA3   1975    1       938     1183    939     0.
CTRIA3   1976    1       914     1189    934     0.
CTRIA3   1977    1       1187    934     1189    0.
CTRIA3   1978    1       1189    1188    1187    0.
CTRIA3   1979    1       1185    1187    1188    0.
CTRIA3   1980    1       1188    1181    1185    0.
CTRIA3   1981    1       934     1187    935     0.
CTRIA3   1982    1       1186    935     1187    0.
CTRIA3   1983    1       1187    1185    1186    0.
CTRIA3   1984    1       935     1186    936     0.
CTRIA3   1985    1       903     1192    916     0.
CTRIA3   1986    1       1190    916     1192    0.
CTRIA3   1987    1       1192    1191    1190    0.
CTRIA3   1988    1       1188    1190    1191    0.
CTRIA3   1989    1       1191    1181    1188    0.
CTRIA3   1990    1       916     1190    915     0.
CTRIA3   1991    1       1189    915     1190    0.
CTRIA3   1992    1       1190    1188    1189    0.
CTRIA3   1993    1       915     1189    914     0.
CTRIA3   1994    1       906     1195    905     0.
CTRIA3   1995    1       1193    905     1195    0.
CTRIA3   1996    1       1195    1194    1193    0.
CTRIA3   1997    1       1191    1193    1194    0.
CTRIA3   1998    1       1194    1181    1191    0.
CTRIA3   1999    1       905     1193    904     0.
CTRIA3   2000    1       1192    904     1193    0.
CTRIA3   2001    1       1193    1191    1192    0.
CTRIA3   2002    1       904     1192    903     0.
CTRIA3   2003    1       928     1198    927     0.
CTRIA3   2004    1       1196    927     1198    0.
CTRIA3   2005    1       1198    1197    1196    0.
CTRIA3   2006    1       1194    1196    1197    0.
CTRIA3   2007    1       1197    1181    1194    0.
CTRIA3   2008    1       927     1196    926     0.
CTRIA3   2009    1       1195    926     1196    0.
CTRIA3   2010    1       1196    1194    1195    0.
CTRIA3   2011    1       926     1195    906     0.
CTRIA3   2012    1       939     1183    940     0.
CTRIA3   2013    1       1199    940     1183    0.
CTRIA3   2014    1       1183    1182    1199    0.
CTRIA3   2015    1       1197    1199    1182    0.
CTRIA3   2016    1       1182    1181    1197    0.
CTRIA3   2017    1       940     1199    941     0.
CTRIA3   2018    1       1198    941     1199    0.
CTRIA3   2019    1       1199    1197    1198    0.
CTRIA3   2020    1       941     1198    928     0.
CTRIA3   2021    1       960     1205    977     0.
CTRIA3   2022    1       1203    977     1205    0.
CTRIA3   2023    1       1205    1204    1203    0.
CTRIA3   2024    1       1201    1203    1204    0.
CTRIA3   2025    1       1204    1200    1201    0.
CTRIA3   2026    1       977     1203    978     0.
CTRIA3   2027    1       1203    1201    1202    0.
CTRIA3   2028    1       922     1208    942     0.
CTRIA3   2029    1       1206    942     1208    0.
CTRIA3   2030    1       1208    1207    1206    0.
CTRIA3   2031    1       1204    1206    1207    0.
CTRIA3   2032    1       1207    1200    1204    0.
CTRIA3   2033    1       942     1206    943     0.
CTRIA3   2034    1       1205    943     1206    0.
CTRIA3   2035    1       1206    1204    1205    0.
CTRIA3   2036    1       943     1205    960     0.
CTRIA3   2037    1       911     1211    924     0.
CTRIA3   2038    1       1209    924     1211    0.
CTRIA3   2039    1       1211    1210    1209    0.
CTRIA3   2040    1       1207    1209    1210    0.
CTRIA3   2041    1       1210    1200    1207    0.
CTRIA3   2042    1       924     1209    923     0.
CTRIA3   2043    1       1208    923     1209    0.
CTRIA3   2044    1       1209    1207    1208    0.
CTRIA3   2045    1       923     1208    922     0.
CTRIA3   2046    1       914     1214    913     0.
CTRIA3   2047    1       1212    913     1214    0.
CTRIA3   2048    1       1214    1213    1212    0.
CTRIA3   2049    1       1210    1212    1213    0.
CTRIA3   2050    1       1213    1200    1210    0.
CTRIA3   2051    1       913     1212    912     0.
CTRIA3   2052    1       1211    912     1212    0.
CTRIA3   2053    1       1212    1210    1211    0.
CTRIA3   2054    1       912     1211    911     0.
CTRIA3   2055    1       936     1217    935     0.
CTRIA3   2056    1       1215    935     1217    0.
CTRIA3   2057    1       1217    1216    1215    0.
CTRIA3   2058    1       1213    1215    1216    0.
CTRIA3   2059    1       1216    1200    1213    0.
CTRIA3   2060    1       935     1215    934     0.
CTRIA3   2061    1       1214    934     1215    0.
CTRIA3   2062    1       1215    1213    1214    0.
CTRIA3   2063    1       934     1214    914     0.
CTRIA3   2064    1       1218    944     1202    0.
CTRIA3   2065    1       1202    1201    1218    0.
CTRIA3   2066    1       1216    1218    1201    0.
CTRIA3   2067    1       1201    1200    1216    0.
CTRIA3   2068    1       944     1218    945     0.
CTRIA3   2069    1       1217    945     1218    0.
CTRIA3   2070    1       1218    1216    1217    0.
CTRIA3   2071    1       945     1217    936     0.
CTRIA3   2072    1       919     1219    925     0.
CTRIA3   2073    1       972     925     1219    0.
CTRIA3   2074    1       1219    973     972     0.
CTRIA3   2075    1       925     972     959     0.
CTRIA3   2076    1       922     1222    921     0.
CTRIA3   2077    1       1220    921     1222    0.
CTRIA3   2078    1       1222    1221    1220    0.
CTRIA3   2079    1       973     1220    1221    0.
CTRIA3   2080    1       1221    974     973     0.
CTRIA3   2081    1       921     1220    920     0.
CTRIA3   2082    1       1219    920     1220    0.
CTRIA3   2083    1       1220    973     1219    0.
CTRIA3   2084    1       920     1219    919     0.
CTRIA3   2085    1       960     976     943     0.
CTRIA3   2086    1       1223    943     976     0.
CTRIA3   2087    1       976     975     1223    0.
CTRIA3   2088    1       1221    1223    975     0.
CTRIA3   2089    1       975     974     1221    0.
CTRIA3   2090    1       943     1223    942     0.
CTRIA3   2091    1       1222    942     1223    0.
CTRIA3   2092    1       1223    1221    1222    0.
CTRIA3   2093    1       942     1222    922     0.
CTRIA3   2094    1       957     997     991     0.
CTRIA3   2095    1       957     956     997     0.
CTRIA3   2096    1       566     1004    951     0.
CTRIA3   2097    1       566     599     1004    0.
CTRIA3   2098    1       1087    958     966     0.
CTRIA3   2099    1       964     1087    966     0.
CTRIA3   2100    1       1203    1202    978     0.
CTRIA3   2101    1       961     978     1202    0.
CTRIA3   2102    1       944     961     1202    0.
CTRIA3   2103    1       1224    574     990     0.
CTRIA3   2104    1       574     1224    725     0.
CTRIA3   2105    1       990     1225    1224    0.
CTRIA3   2106    1       931     932     1228    0.
CTRIA3   2107    1       1226    1228    932     0.
CTRIA3   2108    1       1228    1226    1227    0.
CTRIA3   2109    1       728     1227    1226    0.
CTRIA3   2110    1       1227    728     725     0.
CTRIA3   2111    1       729     1226    933     0.
CTRIA3   2112    1       1226    729     728     0.
CTRIA3   2113    1       933     511     729     0.
CTRIA3   2114    1       963     947     1225    0.
CTRIA3   2115    1       1229    1225    947     0.
CTRIA3   2116    1       1225    1229    1224    0.
CTRIA3   2117    1       1227    1224    1229    0.
CTRIA3   2118    1       1224    1227    725     0.
CTRIA3   2119    1       947     946     1229    0.
CTRIA3   2120    1       1228    1229    946     0.
CTRIA3   2121    1       1229    1228    1227    0.
CTRIA3   2122    1       946     931     1228    0.
CTRIA3   2123    1       986     985     1230    0.
CTRIA3   2124    1       988     987     1231    0.
CTRIA3   2125    1       986     1231    987     0.
CTRIA3   2126    1       1231    986     1230    0.
CTRIA3   2127    1       931     946     1234    0.
CTRIA3   2128    1       1232    1234    946     0.
CTRIA3   2129    1       1234    1232    1233    0.
CTRIA3   2130    1       1231    1233    1232    0.
CTRIA3   2131    1       1233    1231    1230    0.
CTRIA3   2132    1       946     947     1232    0.
CTRIA3   2133    1       988     1232    947     0.
CTRIA3   2134    1       1232    988     1231    0.
CTRIA3   2135    1       947     963     988     0.
CTRIA3   2136    1       928     929     1237    0.
CTRIA3   2137    1       1235    1237    929     0.
CTRIA3   2138    1       1237    1235    1236    0.
CTRIA3   2139    1       1233    1236    1235    0.
CTRIA3   2140    1       1236    1233    1230    0.
CTRIA3   2141    1       929     930     1235    0.
CTRIA3   2142    1       1234    1235    930     0.
CTRIA3   2143    1       1235    1234    1233    0.
CTRIA3   2144    1       930     931     1234    0.
CTRIA3   2145    1       939     940     1240    0.
CTRIA3   2146    1       1238    1240    940     0.
CTRIA3   2147    1       1240    1238    1239    0.
CTRIA3   2148    1       1236    1239    1238    0.
CTRIA3   2149    1       1239    1236    1230    0.
CTRIA3   2150    1       940     941     1238    0.
CTRIA3   2151    1       1237    1238    941     0.
CTRIA3   2152    1       1238    1237    1236    0.
CTRIA3   2153    1       941     928     1237    0.
CTRIA3   2154    1       1241    984     962     0.
CTRIA3   2155    1       984     1241    985     0.
CTRIA3   2156    1       1239    985     1241    0.
CTRIA3   2157    1       985     1239    1230    0.
CTRIA3   2158    1       962     948     1241    0.
CTRIA3   2159    1       1240    1241    948     0.
CTRIA3   2160    1       1241    1240    1239    0.
CTRIA3   2161    1       948     939     1240    0.
CTRIA3   2162    1       939     948     1242    0.
CTRIA3   2163    1       983     1242    948     0.
CTRIA3   2164    1       1242    983     982     0.
CTRIA3   2165    1       948     962     983     0.
CTRIA3   2166    1       936     937     1245    0.
CTRIA3   2167    1       1243    1245    937     0.
CTRIA3   2168    1       1245    1243    1244    0.
CTRIA3   2169    1       982     1244    1243    0.
CTRIA3   2170    1       1244    982     981     0.
CTRIA3   2171    1       937     938     1243    0.
CTRIA3   2172    1       1242    1243    938     0.
CTRIA3   2173    1       1243    1242    982     0.
CTRIA3   2174    1       938     939     1242    0.
CTRIA3   2175    1       961     944     979     0.
CTRIA3   2176    1       1246    979     944     0.
CTRIA3   2177    1       979     1246    980     0.
CTRIA3   2178    1       1244    980     1246    0.
CTRIA3   2179    1       980     1244    981     0.
CTRIA3   2180    1       944     945     1246    0.
CTRIA3   2181    1       1245    1246    945     0.
CTRIA3   2182    1       1246    1245    1244    0.
CTRIA3   2183    1       945     936     1245    0.
CTRIA3   2184    1       1225    989     963     0.
CTRIA3   2185    1       990     989     1225    0.
CQUAD4   2186    1       990     574     816     1247    0.
CQUAD4   2187    1       965     964     1248    1249    0.
CQUAD4   2188    1       964     966     1250    1248    0.
CQUAD4   2189    1       966     958     1251    1250    0.
CQUAD4   2190    1       958     967     1252    1251    0.
CQUAD4   2191    1       967     968     1253    1252    0.
CQUAD4   2192    1       968     969     1254    1253    0.
CQUAD4   2193    1       969     970     1255    1254    0.
CQUAD4   2194    1       970     971     1256    1255    0.
CQUAD4   2195    1       971     959     1257    1256    0.
CQUAD4   2196    1       959     972     1258    1257    0.
CQUAD4   2197    1       972     973     1259    1258    0.
CQUAD4   2198    1       973     974     1260    1259    0.
CQUAD4   2199    1       974     975     1261    1260    0.
CQUAD4   2200    1       975     976     1262    1261    0.
CQUAD4   2201    1       976     960     1263    1262    0.
CQUAD4   2202    1       960     977     1264    1263    0.
CQUAD4   2203    1       977     978     1265    1264    0.
CQUAD4   2204    1       978     961     1266    1265    0.
CQUAD4   2205    1       961     979     1267    1266    0.
CQUAD4   2206    1       979     980     1268    1267    0.
CQUAD4   2207    1       980     981     1269    1268    0.
CQUAD4   2208    1       981     982     1270    1269    0.
CQUAD4   2209    1       982     983     1271    1270    0.
CQUAD4   2210    1       983     962     1272    1271    0.
CQUAD4   2211    1       962     984     1273    1272    0.
CQUAD4   2212    1       984     985     1274    1273    0.
CQUAD4   2213    1       985     986     1275    1274    0.
CQUAD4   2214    1       986     987     1276    1275    0.
CQUAD4   2215    1       987     988     1277    1276    0.
CQUAD4   2216    1       988     963     1278    1277    0.
CQUAD4   2217    1       963     989     1279    1278    0.
CQUAD4   2218    1       989     990     1247    1279    0.
CTRIA3   2219    1       1280    1407    1281    0.
CTRIA3   2220    1       1405    1281    1407    0.
CTRIA3   2221    1       1407    1406    1405    0.
CTRIA3   2222    1       1403    1405    1406    0.
CTRIA3   2223    1       1406    1402    1403    0.
CTRIA3   2224    1       1281    1405    1282    0.
CTRIA3   2225    1       1404    1282    1405    0.
CTRIA3   2226    1       1405    1403    1404    0.
CTRIA3   2227    1       1282    1404    1283    0.
CTRIA3   2228    1       1361    1409    1367    0.
CTRIA3   2229    1       1368    1367    1409    0.
CTRIA3   2230    1       1409    1408    1368    0.
CTRIA3   2231    1       1283    1404    1284    0.
CTRIA3   2232    1       1410    1284    1404    0.
CTRIA3   2233    1       1404    1403    1410    0.
CTRIA3   2234    1       1408    1410    1403    0.
CTRIA3   2235    1       1403    1402    1408    0.
CTRIA3   2236    1       1284    1410    1285    0.
CTRIA3   2237    1       1409    1285    1410    0.
CTRIA3   2238    1       1410    1408    1409    0.
CTRIA3   2239    1       1285    1409    1361    0.
CTRIA3   2240    1       1289    1415    1290    0.
CTRIA3   2241    1       1413    1290    1415    0.
CTRIA3   2242    1       1415    1414    1413    0.
CTRIA3   2243    1       995     1413    1414    0.
CTRIA3   2244    1       1414    991     995     0.
CTRIA3   2245    1       1290    1413    1291    0.
CTRIA3   2246    1       996     1291    1413    0.
CTRIA3   2247    1       1413    995     996     0.
CTRIA3   2248    1       1294    1424    1295    0.
CTRIA3   2249    1       1362    1418    1287    0.
CTRIA3   2250    1       1416    1287    1418    0.
CTRIA3   2251    1       1418    1417    1416    0.
CTRIA3   2252    1       1414    1416    1417    0.
CTRIA3   2253    1       1417    991     1414    0.
CTRIA3   2254    1       1287    1416    1288    0.
CTRIA3   2255    1       1415    1288    1416    0.
CTRIA3   2256    1       1416    1414    1415    0.
CTRIA3   2257    1       1288    1415    1289    0.
CTRIA3   2258    1       1418    1364    1363    0.
CTRIA3   2259    1       1363    1417    1418    0.
CTRIA3   2260    1       1364    1418    1362    0.
CTRIA3   2261    1       1422    1295    1424    0.
CTRIA3   2262    1       1424    1423    1422    0.
CTRIA3   2263    1       1420    1422    1423    0.
CTRIA3   2264    1       1423    1419    1420    0.
CTRIA3   2265    1       1295    1422    1296    0.
CTRIA3   2266    1       1421    1296    1422    0.
CTRIA3   2267    1       1422    1420    1421    0.
CTRIA3   2268    1       1283    1427    1292    0.
CTRIA3   2269    1       1425    1292    1427    0.
CTRIA3   2270    1       1427    1426    1425    0.
CTRIA3   2271    1       1423    1425    1426    0.
CTRIA3   2272    1       1426    1419    1423    0.
CTRIA3   2273    1       1292    1425    1293    0.
CTRIA3   2274    1       1424    1293    1425    0.
CTRIA3   2275    1       1425    1423    1424    0.
CTRIA3   2276    1       1293    1424    1294    0.
CTRIA3   2277    1       1361    1430    1285    0.
CTRIA3   2278    1       1428    1285    1430    0.
CTRIA3   2279    1       1430    1429    1428    0.
CTRIA3   2280    1       1426    1428    1429    0.
CTRIA3   2281    1       1429    1419    1426    0.
CTRIA3   2282    1       1285    1428    1284    0.
CTRIA3   2283    1       1427    1284    1428    0.
CTRIA3   2284    1       1428    1426    1427    0.
CTRIA3   2285    1       1284    1427    1283    0.
CTRIA3   2286    1       1362    1433    1365    0.
CTRIA3   2287    1       1431    1365    1433    0.
CTRIA3   2288    1       1433    1432    1431    0.
CTRIA3   2289    1       1429    1431    1432    0.
CTRIA3   2290    1       1432    1419    1429    0.
CTRIA3   2291    1       1365    1431    1366    0.
CTRIA3   2292    1       1430    1366    1431    0.
CTRIA3   2293    1       1431    1429    1430    0.
CTRIA3   2294    1       1366    1430    1361    0.
CTRIA3   2295    1       1289    1436    1288    0.
CTRIA3   2296    1       1434    1288    1436    0.
CTRIA3   2297    1       1436    1435    1434    0.
CTRIA3   2298    1       1432    1434    1435    0.
CTRIA3   2299    1       1435    1419    1432    0.
CTRIA3   2300    1       1288    1434    1287    0.
CTRIA3   2301    1       1433    1287    1434    0.
CTRIA3   2302    1       1434    1432    1433    0.
CTRIA3   2303    1       1287    1433    1362    0.
CTRIA3   2304    1       1437    1297    1421    0.
CTRIA3   2305    1       1421    1420    1437    0.
CTRIA3   2306    1       1435    1437    1420    0.
CTRIA3   2307    1       1420    1419    1435    0.
CTRIA3   2308    1       1297    1437    1298    0.
CTRIA3   2309    1       1436    1298    1437    0.
CTRIA3   2310    1       1437    1435    1436    0.
CTRIA3   2311    1       1298    1436    1289    0.
CTRIA3   2312    1       1301    1443    1302    0.
CTRIA3   2313    1       1441    1302    1443    0.
CTRIA3   2314    1       1443    1442    1441    0.
CTRIA3   2315    1       1439    1441    1442    0.
CTRIA3   2316    1       1442    1438    1439    0.
CTRIA3   2317    1       1302    1441    1303    0.
CTRIA3   2318    1       1440    1303    1441    0.
CTRIA3   2319    1       1441    1439    1440    0.
CTRIA3   2320    1       1303    1440    1304    0.
CTRIA3   2321    1       1286    1446    1299    0.
CTRIA3   2322    1       1444    1299    1446    0.
CTRIA3   2323    1       1446    1445    1444    0.
CTRIA3   2324    1       1442    1444    1445    0.
CTRIA3   2325    1       1445    1438    1442    0.
CTRIA3   2326    1       1299    1444    1300    0.
CTRIA3   2327    1       1443    1300    1444    0.
CTRIA3   2328    1       1444    1442    1443    0.
CTRIA3   2329    1       1300    1443    1301    0.
CTRIA3   2330    1       1280    1449    1411    0.
CTRIA3   2331    1       1447    1411    1449    0.
CTRIA3   2332    1       1449    1448    1447    0.
CTRIA3   2333    1       1445    1447    1448    0.
CTRIA3   2334    1       1448    1438    1445    0.
CTRIA3   2335    1       1411    1447    1412    0.
CTRIA3   2336    1       1446    1412    1447    0.
CTRIA3   2337    1       1447    1445    1446    0.
CTRIA3   2338    1       1412    1446    1286    0.
CTRIA3   2339    1       1283    1452    1282    0.
CTRIA3   2340    1       1450    1282    1452    0.
CTRIA3   2341    1       1452    1451    1450    0.
CTRIA3   2342    1       1448    1450    1451    0.
CTRIA3   2343    1       1451    1438    1448    0.
CTRIA3   2344    1       1282    1450    1281    0.
CTRIA3   2345    1       1449    1281    1450    0.
CTRIA3   2346    1       1450    1448    1449    0.
CTRIA3   2347    1       1281    1449    1280    0.
CTRIA3   2348    1       1294    1455    1293    0.
CTRIA3   2349    1       1453    1293    1455    0.
CTRIA3   2350    1       1455    1454    1453    0.
CTRIA3   2351    1       1451    1453    1454    0.
CTRIA3   2352    1       1454    1438    1451    0.
CTRIA3   2353    1       1293    1453    1292    0.
CTRIA3   2354    1       1452    1292    1453    0.
CTRIA3   2355    1       1453    1451    1452    0.
CTRIA3   2356    1       1292    1452    1283    0.
CTRIA3   2357    1       1304    1440    1305    0.
CTRIA3   2358    1       1456    1305    1440    0.
CTRIA3   2359    1       1440    1439    1456    0.
CTRIA3   2360    1       1454    1456    1439    0.
CTRIA3   2361    1       1439    1438    1454    0.
CTRIA3   2362    1       1305    1456    1306    0.
CTRIA3   2363    1       1455    1306    1456    0.
CTRIA3   2364    1       1456    1454    1455    0.
CTRIA3   2365    1       1306    1455    1294    0.
CTRIA3   2366    1       1307    1462    1308    0.
CTRIA3   2367    1       1460    1308    1462    0.
CTRIA3   2368    1       1462    1461    1460    0.
CTRIA3   2369    1       1458    1460    1461    0.
CTRIA3   2370    1       1461    1457    1458    0.
CTRIA3   2371    1       1308    1460    1309    0.
CTRIA3   2372    1       1459    1309    1460    0.
CTRIA3   2373    1       1460    1458    1459    0.
CTRIA3   2374    1       1309    1459    1310    0.
CTRIA3   2375    1       1301    1467    1300    0.
CTRIA3   2376    1       1465    1300    1467    0.
CTRIA3   2377    1       1467    1466    1465    0.
CTRIA3   2378    1       1463    1465    1466    0.
CTRIA3   2379    1       1466    1457    1463    0.
CTRIA3   2380    1       1300    1465    1299    0.
CTRIA3   2381    1       1464    1299    1465    0.
CTRIA3   2382    1       1465    1463    1464    0.
CTRIA3   2383    1       1299    1464    1286    0.
CTRIA3   2384    1       1310    1459    1311    0.
CTRIA3   2385    1       1468    1311    1459    0.
CTRIA3   2386    1       1459    1458    1468    0.
CTRIA3   2387    1       1466    1468    1458    0.
CTRIA3   2388    1       1458    1457    1466    0.
CTRIA3   2389    1       1467    1312    1468    0.
CTRIA3   2390    1       1468    1466    1467    0.
CTRIA3   2391    1       1312    1467    1301    0.
CTRIA3   2392    1       1316    1472    1317    0.
CTRIA3   2393    1       1289    1471    1298    0.
CTRIA3   2394    1       1290    1471    1289    0.
CTRIA3   2395    1       1304    1474    1314    0.
CTRIA3   2396    1       1473    1314    1474    0.
CTRIA3   2397    1       1314    1473    1315    0.
CTRIA3   2398    1       1472    1315    1473    0.
CTRIA3   2399    1       1315    1472    1316    0.
CTRIA3   2400    1       1294    1475    1306    0.
CTRIA3   2401    1       1305    1474    1304    0.
CTRIA3   2402    1       1295    1475    1294    0.
CTRIA3   2403    1       1320    1481    1321    0.
CTRIA3   2404    1       1479    1321    1481    0.
CTRIA3   2405    1       1481    1480    1479    0.
CTRIA3   2406    1       1477    1479    1480    0.
CTRIA3   2407    1       1480    1476    1477    0.
CTRIA3   2408    1       1321    1479    1322    0.
CTRIA3   2409    1       1478    1322    1479    0.
CTRIA3   2410    1       1479    1477    1478    0.
CTRIA3   2411    1       1322    1478    1323    0.
CTRIA3   2412    1       1310    1484    1318    0.
CTRIA3   2413    1       1482    1318    1484    0.
CTRIA3   2414    1       1484    1483    1482    0.
CTRIA3   2415    1       1480    1482    1483    0.
CTRIA3   2416    1       1483    1476    1480    0.
CTRIA3   2417    1       1318    1482    1319    0.
CTRIA3   2418    1       1481    1319    1482    0.
CTRIA3   2419    1       1482    1480    1481    0.
CTRIA3   2420    1       1319    1481    1320    0.
CTRIA3   2421    1       1301    1487    1312    0.
CTRIA3   2422    1       1485    1312    1487    0.
CTRIA3   2423    1       1487    1486    1485    0.
CTRIA3   2424    1       1483    1485    1486    0.
CTRIA3   2425    1       1486    1476    1483    0.
CTRIA3   2426    1       1484    1311    1485    0.
CTRIA3   2427    1       1485    1483    1484    0.
CTRIA3   2428    1       1311    1484    1310    0.
CTRIA3   2429    1       1304    1490    1303    0.
CTRIA3   2430    1       1488    1303    1490    0.
CTRIA3   2431    1       1490    1489    1488    0.
CTRIA3   2432    1       1486    1488    1489    0.
CTRIA3   2433    1       1489    1476    1486    0.
CTRIA3   2434    1       1303    1488    1302    0.
CTRIA3   2435    1       1487    1302    1488    0.
CTRIA3   2436    1       1488    1486    1487    0.
CTRIA3   2437    1       1302    1487    1301    0.
CTRIA3   2438    1       1316    1493    1315    0.
CTRIA3   2439    1       1491    1315    1493    0.
CTRIA3   2440    1       1493    1492    1491    0.
CTRIA3   2441    1       1489    1491    1492    0.
CTRIA3   2442    1       1492    1476    1489    0.
CTRIA3   2443    1       1315    1491    1314    0.
CTRIA3   2444    1       1490    1314    1491    0.
CTRIA3   2445    1       1491    1489    1490    0.
CTRIA3   2446    1       1314    1490    1304    0.
CTRIA3   2447    1       1323    1478    1324    0.
CTRIA3   2448    1       1494    1324    1478    0.
CTRIA3   2449    1       1478    1477    1494    0.
CTRIA3   2450    1       1492    1494    1477    0.
CTRIA3   2451    1       1477    1476    1492    0.
CTRIA3   2452    1       1324    1494    1325    0.
CTRIA3   2453    1       1493    1325    1494    0.
CTRIA3   2454    1       1494    1492    1493    0.
CTRIA3   2455    1       1325    1493    1316    0.
CTRIA3   2456    1       1328    1500    1329    0.
CTRIA3   2457    1       1498    1329    1500    0.
CTRIA3   2458    1       1500    1499    1498    0.
CTRIA3   2459    1       1496    1498    1499    0.
CTRIA3   2460    1       1499    1495    1496    0.
CTRIA3   2461    1       1329    1498    1330    0.
CTRIA3   2462    1       1497    1330    1498    0.
CTRIA3   2463    1       1498    1496    1497    0.
CTRIA3   2464    1       1330    1497    1331    0.
CTRIA3   2465    1       1313    1503    1326    0.
CTRIA3   2466    1       1501    1326    1503    0.
CTRIA3   2467    1       1503    1502    1501    0.
CTRIA3   2468    1       1499    1501    1502    0.
CTRIA3   2469    1       1502    1495    1499    0.
CTRIA3   2470    1       1326    1501    1327    0.
CTRIA3   2471    1       1500    1327    1501    0.
CTRIA3   2472    1       1501    1499    1500    0.
CTRIA3   2473    1       1327    1500    1328    0.
CTRIA3   2474    1       1307    1506    1469    0.
CTRIA3   2475    1       1504    1469    1506    0.
CTRIA3   2476    1       1506    1505    1504    0.
CTRIA3   2477    1       1502    1504    1505    0.
CTRIA3   2478    1       1505    1495    1502    0.
CTRIA3   2479    1       1469    1504    1470    0.
CTRIA3   2480    1       1503    1470    1504    0.
CTRIA3   2481    1       1504    1502    1503    0.
CTRIA3   2482    1       1470    1503    1313    0.
CTRIA3   2483    1       1310    1509    1309    0.
CTRIA3   2484    1       1507    1309    1509    0.
CTRIA3   2485    1       1509    1508    1507    0.
CTRIA3   2486    1       1505    1507    1508    0.
CTRIA3   2487    1       1508    1495    1505    0.
CTRIA3   2488    1       1309    1507    1308    0.
CTRIA3   2489    1       1506    1308    1507    0.
CTRIA3   2490    1       1507    1505    1506    0.
CTRIA3   2491    1       1308    1506    1307    0.
CTRIA3   2492    1       1320    1512    1319    0.
CTRIA3   2493    1       1510    1319    1512    0.
CTRIA3   2494    1       1512    1511    1510    0.
CTRIA3   2495    1       1508    1510    1511    0.
CTRIA3   2496    1       1511    1495    1508    0.
CTRIA3   2497    1       1319    1510    1318    0.
CTRIA3   2498    1       1509    1318    1510    0.
CTRIA3   2499    1       1510    1508    1509    0.
CTRIA3   2500    1       1318    1509    1310    0.
CTRIA3   2501    1       1331    1497    1332    0.
CTRIA3   2502    1       1513    1332    1497    0.
CTRIA3   2503    1       1497    1496    1513    0.
CTRIA3   2504    1       1511    1513    1496    0.
CTRIA3   2505    1       1496    1495    1511    0.
CTRIA3   2506    1       1332    1513    1333    0.
CTRIA3   2507    1       1512    1333    1513    0.
CTRIA3   2508    1       1513    1511    1512    0.
CTRIA3   2509    1       1333    1512    1320    0.
CTRIA3   2510    1       1515    1376    1377    0.
CTRIA3   2511    1       1377    1514    1515    0.
CTRIA3   2512    1       1376    1515    1516    0.
CTRIA3   2513    1       1328    1521    1327    0.
CTRIA3   2514    1       1519    1327    1521    0.
CTRIA3   2515    1       1521    1520    1519    0.
CTRIA3   2516    1       1517    1519    1520    0.
CTRIA3   2517    1       1520    1514    1517    0.
CTRIA3   2518    1       1327    1519    1326    0.
CTRIA3   2519    1       1518    1326    1519    0.
CTRIA3   2520    1       1519    1517    1518    0.
CTRIA3   2521    1       1326    1518    1313    0.
CTRIA3   2522    1       1370    1516    1334    0.
CTRIA3   2523    1       1522    1334    1516    0.
CTRIA3   2524    1       1516    1515    1522    0.
CTRIA3   2525    1       1520    1522    1515    0.
CTRIA3   2526    1       1515    1514    1520    0.
CTRIA3   2527    1       1334    1522    1335    0.
CTRIA3   2528    1       1521    1335    1522    0.
CTRIA3   2529    1       1522    1520    1521    0.
CTRIA3   2530    1       1335    1521    1328    0.
CTRIA3   2531    1       1338    1528    1339    0.
CTRIA3   2532    1       1526    1339    1528    0.
CTRIA3   2533    1       1528    1527    1526    0.
CTRIA3   2534    1       1524    1526    1527    0.
CTRIA3   2535    1       1527    1523    1524    0.
CTRIA3   2536    1       1339    1526    1340    0.
CTRIA3   2537    1       1525    1340    1526    0.
CTRIA3   2538    1       1526    1524    1525    0.
CTRIA3   2539    1       1340    1525    1341    0.
CTRIA3   2540    1       1323    1531    1336    0.
CTRIA3   2541    1       1529    1336    1531    0.
CTRIA3   2542    1       1531    1530    1529    0.
CTRIA3   2543    1       1527    1529    1530    0.
CTRIA3   2544    1       1530    1523    1527    0.
CTRIA3   2545    1       1336    1529    1337    0.
CTRIA3   2546    1       1528    1337    1529    0.
CTRIA3   2547    1       1529    1527    1528    0.
CTRIA3   2548    1       1337    1528    1338    0.
CTRIA3   2549    1       1316    1534    1325    0.
CTRIA3   2550    1       1532    1325    1534    0.
CTRIA3   2551    1       1534    1533    1532    0.
CTRIA3   2552    1       1530    1532    1533    0.
CTRIA3   2553    1       1533    1523    1530    0.
CTRIA3   2554    1       1325    1532    1324    0.
CTRIA3   2555    1       1531    1324    1532    0.
CTRIA3   2556    1       1532    1530    1531    0.
CTRIA3   2557    1       1324    1531    1323    0.
CTRIA3   2558    1       1533    1535    1536    0.
CTRIA3   2559    1       1536    1523    1533    0.
CTRIA3   2560    1       1534    1317    1535    0.
CTRIA3   2561    1       1535    1533    1534    0.
CTRIA3   2562    1       1317    1534    1316    0.
CTRIA3   2563    1       1537    1523    1536    0.
CTRIA3   2564    1       1341    1525    1342    0.
CTRIA3   2565    1       1538    1342    1525    0.
CTRIA3   2566    1       1525    1524    1538    0.
CTRIA3   2567    1       1537    1538    1524    0.
CTRIA3   2568    1       1524    1523    1537    0.
CTRIA3   2569    1       1345    1544    1346    0.
CTRIA3   2570    1       1542    1346    1544    0.
CTRIA3   2571    1       1544    1543    1542    0.
CTRIA3   2572    1       1540    1542    1543    0.
CTRIA3   2573    1       1543    1539    1540    0.
CTRIA3   2574    1       1346    1542    1347    0.
CTRIA3   2575    1       1541    1347    1542    0.
CTRIA3   2576    1       1542    1540    1541    0.
CTRIA3   2577    1       1347    1541    1348    0.
CTRIA3   2578    1       1331    1547    1343    0.
CTRIA3   2579    1       1545    1343    1547    0.
CTRIA3   2580    1       1547    1546    1545    0.
CTRIA3   2581    1       1543    1545    1546    0.
CTRIA3   2582    1       1546    1539    1543    0.
CTRIA3   2583    1       1343    1545    1344    0.
CTRIA3   2584    1       1544    1344    1545    0.
CTRIA3   2585    1       1545    1543    1544    0.
CTRIA3   2586    1       1344    1544    1345    0.
CTRIA3   2587    1       1320    1550    1333    0.
CTRIA3   2588    1       1548    1333    1550    0.
CTRIA3   2589    1       1550    1549    1548    0.
CTRIA3   2590    1       1546    1548    1549    0.
CTRIA3   2591    1       1549    1539    1546    0.
CTRIA3   2592    1       1333    1548    1332    0.
CTRIA3   2593    1       1547    1332    1548    0.
CTRIA3   2594    1       1548    1546    1547    0.
CTRIA3   2595    1       1332    1547    1331    0.
CTRIA3   2596    1       1323    1553    1322    0.
CTRIA3   2597    1       1551    1322    1553    0.
CTRIA3   2598    1       1553    1552    1551    0.
CTRIA3   2599    1       1549    1551    1552    0.
CTRIA3   2600    1       1552    1539    1549    0.
CTRIA3   2601    1       1322    1551    1321    0.
CTRIA3   2602    1       1550    1321    1551    0.
CTRIA3   2603    1       1551    1549    1550    0.
CTRIA3   2604    1       1321    1550    1320    0.
CTRIA3   2605    1       1338    1556    1337    0.
CTRIA3   2606    1       1554    1337    1556    0.
CTRIA3   2607    1       1556    1555    1554    0.
CTRIA3   2608    1       1552    1554    1555    0.
CTRIA3   2609    1       1555    1539    1552    0.
CTRIA3   2610    1       1337    1554    1336    0.
CTRIA3   2611    1       1553    1336    1554    0.
CTRIA3   2612    1       1554    1552    1553    0.
CTRIA3   2613    1       1336    1553    1323    0.
CTRIA3   2614    1       1348    1541    1349    0.
CTRIA3   2615    1       1557    1349    1541    0.
CTRIA3   2616    1       1541    1540    1557    0.
CTRIA3   2617    1       1555    1557    1540    0.
CTRIA3   2618    1       1540    1539    1555    0.
CTRIA3   2619    1       1349    1557    1350    0.
CTRIA3   2620    1       1556    1350    1557    0.
CTRIA3   2621    1       1557    1555    1556    0.
CTRIA3   2622    1       1350    1556    1338    0.
CTRIA3   2623    1       1381    1558    1382    0.
CTRIA3   2624    1       1379    1559    1380    0.
CTRIA3   2625    1       1381    1380    1559    0.
CTRIA3   2626    1       1559    1558    1381    0.
CTRIA3   2627    1       1328    1562    1335    0.
CTRIA3   2628    1       1560    1335    1562    0.
CTRIA3   2629    1       1562    1561    1560    0.
CTRIA3   2630    1       1559    1560    1561    0.
CTRIA3   2631    1       1561    1558    1559    0.
CTRIA3   2632    1       1335    1560    1334    0.
CTRIA3   2633    1       1379    1334    1560    0.
CTRIA3   2634    1       1560    1559    1379    0.
CTRIA3   2635    1       1334    1379    1370    0.
CTRIA3   2636    1       1331    1565    1330    0.
CTRIA3   2637    1       1563    1330    1565    0.
CTRIA3   2638    1       1565    1564    1563    0.
CTRIA3   2639    1       1561    1563    1564    0.
CTRIA3   2640    1       1564    1558    1561    0.
CTRIA3   2641    1       1330    1563    1329    0.
CTRIA3   2642    1       1562    1329    1563    0.
CTRIA3   2643    1       1563    1561    1562    0.
CTRIA3   2644    1       1329    1562    1328    0.
CTRIA3   2645    1       1345    1568    1344    0.
CTRIA3   2646    1       1566    1344    1568    0.
CTRIA3   2647    1       1568    1567    1566    0.
CTRIA3   2648    1       1564    1566    1567    0.
CTRIA3   2649    1       1567    1558    1564    0.
CTRIA3   2650    1       1344    1566    1343    0.
CTRIA3   2651    1       1565    1343    1566    0.
CTRIA3   2652    1       1566    1564    1565    0.
CTRIA3   2653    1       1343    1565    1331    0.
CTRIA3   2654    1       1569    1371    1383    0.
CTRIA3   2655    1       1383    1382    1569    0.
CTRIA3   2656    1       1567    1569    1382    0.
CTRIA3   2657    1       1382    1558    1567    0.
CTRIA3   2658    1       1371    1569    1351    0.
CTRIA3   2659    1       1568    1351    1569    0.
CTRIA3   2660    1       1569    1567    1568    0.
CTRIA3   2661    1       1351    1568    1345    0.
CTRIA3   2662    1       1354    1570    1355    0.
CTRIA3   2663    1       1341    1572    1352    0.
CTRIA3   2664    1       1571    1352    1572    0.
CTRIA3   2665    1       1352    1571    1353    0.
CTRIA3   2666    1       1570    1353    1571    0.
CTRIA3   2667    1       1353    1570    1354    0.
CTRIA3   2668    1       1342    1572    1341    0.
CTRIA3   2669    1       1372    1578    1389    0.
CTRIA3   2670    1       1576    1389    1578    0.
CTRIA3   2671    1       1578    1577    1576    0.
CTRIA3   2672    1       1574    1576    1577    0.
CTRIA3   2673    1       1577    1573    1574    0.
CTRIA3   2674    1       1389    1576    1390    0.
CTRIA3   2675    1       1576    1574    1575    0.
CTRIA3   2676    1       1348    1581    1356    0.
CTRIA3   2677    1       1579    1356    1581    0.
CTRIA3   2678    1       1581    1580    1579    0.
CTRIA3   2679    1       1577    1579    1580    0.
CTRIA3   2680    1       1580    1573    1577    0.
CTRIA3   2681    1       1356    1579    1357    0.
CTRIA3   2682    1       1578    1357    1579    0.
CTRIA3   2683    1       1579    1577    1578    0.
CTRIA3   2684    1       1357    1578    1372    0.
CTRIA3   2685    1       1338    1584    1350    0.
CTRIA3   2686    1       1582    1350    1584    0.
CTRIA3   2687    1       1584    1583    1582    0.
CTRIA3   2688    1       1580    1582    1583    0.
CTRIA3   2689    1       1583    1573    1580    0.
CTRIA3   2690    1       1350    1582    1349    0.
CTRIA3   2691    1       1581    1349    1582    0.
CTRIA3   2692    1       1582    1580    1581    0.
CTRIA3   2693    1       1349    1581    1348    0.
CTRIA3   2694    1       1341    1587    1340    0.
CTRIA3   2695    1       1585    1340    1587    0.
CTRIA3   2696    1       1587    1586    1585    0.
CTRIA3   2697    1       1583    1585    1586    0.
CTRIA3   2698    1       1586    1573    1583    0.
CTRIA3   2699    1       1340    1585    1339    0.
CTRIA3   2700    1       1584    1339    1585    0.
CTRIA3   2701    1       1585    1583    1584    0.
CTRIA3   2702    1       1339    1584    1338    0.
CTRIA3   2703    1       1354    1590    1353    0.
CTRIA3   2704    1       1588    1353    1590    0.
CTRIA3   2705    1       1590    1589    1588    0.
CTRIA3   2706    1       1586    1588    1589    0.
CTRIA3   2707    1       1589    1573    1586    0.
CTRIA3   2708    1       1353    1588    1352    0.
CTRIA3   2709    1       1587    1352    1588    0.
CTRIA3   2710    1       1588    1586    1587    0.
CTRIA3   2711    1       1352    1587    1341    0.
CTRIA3   2712    1       1591    1358    1575    0.
CTRIA3   2713    1       1575    1574    1591    0.
CTRIA3   2714    1       1589    1591    1574    0.
CTRIA3   2715    1       1574    1573    1589    0.
CTRIA3   2716    1       1358    1591    1359    0.
CTRIA3   2717    1       1590    1359    1591    0.
CTRIA3   2718    1       1591    1589    1590    0.
CTRIA3   2719    1       1359    1590    1354    0.
CTRIA3   2720    1       1345    1592    1351    0.
CTRIA3   2721    1       1384    1351    1592    0.
CTRIA3   2722    1       1592    1385    1384    0.
CTRIA3   2723    1       1351    1384    1371    0.
CTRIA3   2724    1       1348    1595    1347    0.
CTRIA3   2725    1       1593    1347    1595    0.
CTRIA3   2726    1       1595    1594    1593    0.
CTRIA3   2727    1       1385    1593    1594    0.
CTRIA3   2728    1       1594    1386    1385    0.
CTRIA3   2729    1       1347    1593    1346    0.
CTRIA3   2730    1       1592    1346    1593    0.
CTRIA3   2731    1       1593    1385    1592    0.
CTRIA3   2732    1       1346    1592    1345    0.
CTRIA3   2733    1       1372    1388    1357    0.
CTRIA3   2734    1       1596    1357    1388    0.
CTRIA3   2735    1       1388    1387    1596    0.
CTRIA3   2736    1       1594    1596    1387    0.
CTRIA3   2737    1       1387    1386    1594    0.
CTRIA3   2738    1       1357    1596    1356    0.
CTRIA3   2739    1       1595    1356    1596    0.
CTRIA3   2740    1       1596    1594    1595    0.
CTRIA3   2741    1       1356    1595    1348    0.
CTRIA3   2742    1       1369    1408    1402    0.
CTRIA3   2743    1       1369    1368    1408    0.
CTRIA3   2744    1       957     1417    1363    0.
CTRIA3   2745    1       957     991     1417    0.
CTRIA3   2746    1       1516    1370    1378    0.
CTRIA3   2747    1       1376    1516    1378    0.
CTRIA3   2748    1       1576    1575    1390    0.
CTRIA3   2749    1       1373    1390    1575    0.
CTRIA3   2750    1       1358    1373    1575    0.
CTRIA3   2751    1       1597    965     1401    0.
CTRIA3   2752    1       1401    1598    1597    0.
CTRIA3   2753    1       1375    1360    1598    0.
CTRIA3   2754    1       1399    1398    1599    0.
CTRIA3   2755    1       1397    1599    1398    0.
CTRIA3   2756    1       1360    1375    1399    0.
CTRIA3   2757    1       1354    1355    1602    0.
CTRIA3   2758    1       1600    1602    1355    0.
CTRIA3   2759    1       1602    1600    1601    0.
CTRIA3   2760    1       1394    1601    1600    0.
CTRIA3   2761    1       1601    1394    1393    0.
CTRIA3   2762    1       1373    1358    1391    0.
CTRIA3   2763    1       1603    1391    1358    0.
CTRIA3   2764    1       1391    1603    1392    0.
CTRIA3   2765    1       1601    1392    1603    0.
CTRIA3   2766    1       1392    1601    1393    0.
CTRIA3   2767    1       1358    1359    1603    0.
CTRIA3   2768    1       1602    1603    1359    0.
CTRIA3   2769    1       1603    1602    1601    0.
CTRIA3   2770    1       1359    1354    1602    0.
CTRIA3   2771    1       1598    1400    1375    0.
CTRIA3   2772    1       1401    1400    1598    0.
CQUAD4   2773    1       1401    965     1249    1604    0.
CQUAD4   2774    1       1377    1376    1605    1606    0.
CQUAD4   2775    1       1376    1378    1607    1605    0.
CQUAD4   2776    1       1378    1370    1608    1607    0.
CQUAD4   2777    1       1370    1379    1609    1608    0.
CQUAD4   2778    1       1379    1380    1610    1609    0.
CQUAD4   2779    1       1380    1381    1611    1610    0.
CQUAD4   2780    1       1381    1382    1612    1611    0.
CQUAD4   2781    1       1382    1383    1613    1612    0.
CQUAD4   2782    1       1383    1371    1614    1613    0.
CQUAD4   2783    1       1371    1384    1615    1614    0.
CQUAD4   2784    1       1384    1385    1616    1615    0.
CQUAD4   2785    1       1385    1386    1617    1616    0.
CQUAD4   2786    1       1386    1387    1618    1617    0.
CQUAD4   2787    1       1387    1388    1619    1618    0.
CQUAD4   2788    1       1388    1372    1620    1619    0.
CQUAD4   2789    1       1372    1389    1621    1620    0.
CQUAD4   2790    1       1389    1390    1622    1621    0.
CQUAD4   2791    1       1390    1373    1623    1622    0.
CQUAD4   2792    1       1373    1391    1624    1623    0.
CQUAD4   2793    1       1391    1392    1625    1624    0.
CQUAD4   2794    1       1392    1393    1626    1625    0.
CQUAD4   2795    1       1393    1394    1627    1626    0.
CQUAD4   2796    1       1374    1395    1629    1628    0.
CQUAD4   2797    1       1395    1396    1630    1629    0.
CQUAD4   2798    1       1396    1397    1631    1630    0.
CQUAD4   2799    1       1397    1398    1632    1631    0.
CQUAD4   2800    1       1398    1399    1633    1632    0.
CQUAD4   2801    1       1399    1375    1634    1633    0.
CQUAD4   2802    1       1375    1400    1635    1634    0.
CQUAD4   2803    1       1400    1401    1604    1635    0.
CTRIA3   2804    1       1785    1636    1787    0.
CTRIA3   2805    1       1787    1786    1785    0.
CTRIA3   2806    1       1783    1785    1786    0.
CTRIA3   2807    1       1786    1782    1783    0.
CTRIA3   2808    1       1636    1785    1637    0.
CTRIA3   2809    1       1784    1637    1785    0.
CTRIA3   2810    1       1785    1783    1784    0.
CTRIA3   2811    1       1637    1784    1638    0.
CTRIA3   2812    1       1740    1789    1746    0.
CTRIA3   2813    1       1747    1746    1789    0.
CTRIA3   2814    1       1789    1788    1747    0.
CTRIA3   2815    1       1638    1784    1639    0.
CTRIA3   2816    1       1790    1639    1784    0.
CTRIA3   2817    1       1784    1783    1790    0.
CTRIA3   2818    1       1788    1790    1783    0.
CTRIA3   2819    1       1783    1782    1788    0.
CTRIA3   2820    1       1639    1790    1640    0.
CTRIA3   2821    1       1789    1640    1790    0.
CTRIA3   2822    1       1790    1788    1789    0.
CTRIA3   2823    1       1640    1789    1740    0.
CTRIA3   2824    1       1643    1793    1644    0.
CTRIA3   2825    1       1791    1644    1793    0.
CTRIA3   2826    1       1793    1792    1791    0.
CTRIA3   2827    1       1406    1791    1792    0.
CTRIA3   2828    1       1792    1402    1406    0.
CTRIA3   2829    1       1644    1791    1645    0.
CTRIA3   2830    1       1407    1645    1791    0.
CTRIA3   2831    1       1791    1406    1407    0.
CTRIA3   2832    1       1645    1407    1280    0.
CTRIA3   2833    1       1648    1802    1649    0.
CTRIA3   2834    1       1741    1796    1641    0.
CTRIA3   2835    1       1794    1641    1796    0.
CTRIA3   2836    1       1796    1795    1794    0.
CTRIA3   2837    1       1792    1794    1795    0.
CTRIA3   2838    1       1795    1402    1792    0.
CTRIA3   2839    1       1641    1794    1642    0.
CTRIA3   2840    1       1793    1642    1794    0.
CTRIA3   2841    1       1794    1792    1793    0.
CTRIA3   2842    1       1642    1793    1643    0.
CTRIA3   2843    1       1796    1743    1742    0.
CTRIA3   2844    1       1742    1795    1796    0.
CTRIA3   2845    1       1743    1796    1741    0.
CTRIA3   2846    1       1800    1649    1802    0.
CTRIA3   2847    1       1802    1801    1800    0.
CTRIA3   2848    1       1798    1800    1801    0.
CTRIA3   2849    1       1801    1797    1798    0.
CTRIA3   2850    1       1649    1800    1650    0.
CTRIA3   2851    1       1799    1650    1800    0.
CTRIA3   2852    1       1800    1798    1799    0.
CTRIA3   2853    1       1650    1799    1651    0.
CTRIA3   2854    1       1638    1805    1646    0.
CTRIA3   2855    1       1803    1646    1805    0.
CTRIA3   2856    1       1805    1804    1803    0.
CTRIA3   2857    1       1801    1803    1804    0.
CTRIA3   2858    1       1804    1797    1801    0.
CTRIA3   2859    1       1646    1803    1647    0.
CTRIA3   2860    1       1802    1647    1803    0.
CTRIA3   2861    1       1803    1801    1802    0.
CTRIA3   2862    1       1647    1802    1648    0.
CTRIA3   2863    1       1740    1808    1640    0.
CTRIA3   2864    1       1806    1640    1808    0.
CTRIA3   2865    1       1808    1807    1806    0.
CTRIA3   2866    1       1804    1806    1807    0.
CTRIA3   2867    1       1807    1797    1804    0.
CTRIA3   2868    1       1640    1806    1639    0.
CTRIA3   2869    1       1805    1639    1806    0.
CTRIA3   2870    1       1806    1804    1805    0.
CTRIA3   2871    1       1639    1805    1638    0.
CTRIA3   2872    1       1741    1811    1744    0.
CTRIA3   2873    1       1809    1744    1811    0.
CTRIA3   2874    1       1811    1810    1809    0.
CTRIA3   2875    1       1807    1809    1810    0.
CTRIA3   2876    1       1810    1797    1807    0.
CTRIA3   2877    1       1744    1809    1745    0.
CTRIA3   2878    1       1808    1745    1809    0.
CTRIA3   2879    1       1809    1807    1808    0.
CTRIA3   2880    1       1745    1808    1740    0.
CTRIA3   2881    1       1643    1814    1642    0.
CTRIA3   2882    1       1812    1642    1814    0.
CTRIA3   2883    1       1814    1813    1812    0.
CTRIA3   2884    1       1810    1812    1813    0.
CTRIA3   2885    1       1813    1797    1810    0.
CTRIA3   2886    1       1642    1812    1641    0.
CTRIA3   2887    1       1811    1641    1812    0.
CTRIA3   2888    1       1812    1810    1811    0.
CTRIA3   2889    1       1641    1811    1741    0.
CTRIA3   2890    1       1651    1799    1652    0.
CTRIA3   2891    1       1815    1652    1799    0.
CTRIA3   2892    1       1799    1798    1815    0.
CTRIA3   2893    1       1813    1815    1798    0.
CTRIA3   2894    1       1798    1797    1813    0.
CTRIA3   2895    1       1652    1815    1653    0.
CTRIA3   2896    1       1814    1653    1815    0.
CTRIA3   2897    1       1815    1813    1814    0.
CTRIA3   2898    1       1653    1814    1643    0.
CTRIA3   2899    1       1817    1819    1820    0.
CTRIA3   2900    1       1820    1816    1817    0.
CTRIA3   2901    1       1654    1819    1655    0.
CTRIA3   2902    1       1818    1655    1819    0.
CTRIA3   2903    1       1819    1817    1818    0.
CTRIA3   2904    1       1655    1818    1656    0.
CTRIA3   2905    1       1638    1824    1637    0.
CTRIA3   2906    1       1822    1637    1824    0.
CTRIA3   2907    1       1824    1823    1822    0.
CTRIA3   2908    1       1821    1822    1823    0.
CTRIA3   2909    1       1823    1816    1821    0.
CTRIA3   2910    1       1637    1822    1636    0.
CTRIA3   2911    1       1648    1827    1647    0.
CTRIA3   2912    1       1825    1647    1827    0.
CTRIA3   2913    1       1827    1826    1825    0.
CTRIA3   2914    1       1823    1825    1826    0.
CTRIA3   2915    1       1826    1816    1823    0.
CTRIA3   2916    1       1647    1825    1646    0.
CTRIA3   2917    1       1824    1646    1825    0.
CTRIA3   2918    1       1825    1823    1824    0.
CTRIA3   2919    1       1646    1824    1638    0.
CTRIA3   2920    1       1656    1818    1657    0.
CTRIA3   2921    1       1828    1657    1818    0.
CTRIA3   2922    1       1818    1817    1828    0.
CTRIA3   2923    1       1826    1828    1817    0.
CTRIA3   2924    1       1817    1816    1826    0.
CTRIA3   2925    1       1657    1828    1658    0.
CTRIA3   2926    1       1827    1658    1828    0.
CTRIA3   2927    1       1828    1826    1827    0.
CTRIA3   2928    1       1658    1827    1648    0.
CTRIA3   2929    1       1661    1834    1662    0.
CTRIA3   2930    1       1832    1662    1834    0.
CTRIA3   2931    1       1834    1833    1832    0.
CTRIA3   2932    1       1830    1832    1833    0.
CTRIA3   2933    1       1833    1829    1830    0.
CTRIA3   2934    1       1662    1832    1663    0.
CTRIA3   2935    1       1831    1663    1832    0.
CTRIA3   2936    1       1832    1830    1831    0.
CTRIA3   2937    1       1663    1831    1664    0.
CTRIA3   2938    1       1669    1853    1670    0.
CTRIA3   2939    1       1651    1837    1659    0.
CTRIA3   2940    1       1835    1659    1837    0.
CTRIA3   2941    1       1837    1836    1835    0.
CTRIA3   2942    1       1833    1835    1836    0.
CTRIA3   2943    1       1836    1829    1833    0.
CTRIA3   2944    1       1659    1835    1660    0.
CTRIA3   2945    1       1834    1660    1835    0.
CTRIA3   2946    1       1835    1833    1834    0.
CTRIA3   2947    1       1660    1834    1661    0.
CTRIA3   2948    1       1643    1840    1653    0.
CTRIA3   2949    1       1838    1653    1840    0.
CTRIA3   2950    1       1840    1839    1838    0.
CTRIA3   2951    1       1836    1838    1839    0.
CTRIA3   2952    1       1839    1829    1836    0.
CTRIA3   2953    1       1653    1838    1652    0.
CTRIA3   2954    1       1837    1652    1838    0.
CTRIA3   2955    1       1838    1836    1837    0.
CTRIA3   2956    1       1652    1837    1651    0.
CTRIA3   2957    1       1280    1843    1645    0.
CTRIA3   2958    1       1841    1645    1843    0.
CTRIA3   2959    1       1843    1842    1841    0.
CTRIA3   2960    1       1839    1841    1842    0.
CTRIA3   2961    1       1842    1829    1839    0.
CTRIA3   2962    1       1645    1841    1644    0.
CTRIA3   2963    1       1840    1644    1841    0.
CTRIA3   2964    1       1841    1839    1840    0.
CTRIA3   2965    1       1644    1840    1643    0.
CTRIA3   2966    1       1286    1846    1412    0.
CTRIA3   2967    1       1844    1412    1846    0.
CTRIA3   2968    1       1846    1845    1844    0.
CTRIA3   2969    1       1842    1844    1845    0.
CTRIA3   2970    1       1845    1829    1842    0.
CTRIA3   2971    1       1412    1844    1411    0.
CTRIA3   2972    1       1843    1411    1844    0.
CTRIA3   2973    1       1844    1842    1843    0.
CTRIA3   2974    1       1411    1843    1280    0.
CTRIA3   2975    1       1664    1831    1665    0.
CTRIA3   2976    1       1847    1665    1831    0.
CTRIA3   2977    1       1831    1830    1847    0.
CTRIA3   2978    1       1845    1847    1830    0.
CTRIA3   2979    1       1830    1829    1845    0.
CTRIA3   2980    1       1665    1847    1666    0.
CTRIA3   2981    1       1846    1666    1847    0.
CTRIA3   2982    1       1847    1845    1846    0.
CTRIA3   2983    1       1666    1846    1286    0.
CTRIA3   2984    1       1851    1670    1853    0.
CTRIA3   2985    1       1853    1852    1851    0.
CTRIA3   2986    1       1849    1851    1852    0.
CTRIA3   2987    1       1852    1848    1849    0.
CTRIA3   2988    1       1670    1851    1671    0.
CTRIA3   2989    1       1850    1671    1851    0.
CTRIA3   2990    1       1851    1849    1850    0.
CTRIA3   2991    1       1671    1850    1672    0.
CTRIA3   2992    1       1656    1856    1667    0.
CTRIA3   2993    1       1854    1667    1856    0.
CTRIA3   2994    1       1856    1855    1854    0.
CTRIA3   2995    1       1852    1854    1855    0.
CTRIA3   2996    1       1855    1848    1852    0.
CTRIA3   2997    1       1667    1854    1668    0.
CTRIA3   2998    1       1853    1668    1854    0.
CTRIA3   2999    1       1854    1852    1853    0.
CTRIA3   3000    1       1668    1853    1669    0.
CTRIA3   3001    1       1648    1859    1658    0.
CTRIA3   3002    1       1857    1658    1859    0.
CTRIA3   3003    1       1859    1858    1857    0.
CTRIA3   3004    1       1855    1857    1858    0.
CTRIA3   3005    1       1858    1848    1855    0.
CTRIA3   3006    1       1658    1857    1657    0.
CTRIA3   3007    1       1856    1657    1857    0.
CTRIA3   3008    1       1857    1855    1856    0.
CTRIA3   3009    1       1657    1856    1656    0.
CTRIA3   3010    1       1651    1862    1650    0.
CTRIA3   3011    1       1860    1650    1862    0.
CTRIA3   3012    1       1862    1861    1860    0.
CTRIA3   3013    1       1858    1860    1861    0.
CTRIA3   3014    1       1861    1848    1858    0.
CTRIA3   3015    1       1650    1860    1649    0.
CTRIA3   3016    1       1859    1649    1860    0.
CTRIA3   3017    1       1860    1858    1859    0.
CTRIA3   3018    1       1649    1859    1648    0.
CTRIA3   3019    1       1661    1865    1660    0.
CTRIA3   3020    1       1863    1660    1865    0.
CTRIA3   3021    1       1865    1864    1863    0.
CTRIA3   3022    1       1861    1863    1864    0.
CTRIA3   3023    1       1864    1848    1861    0.
CTRIA3   3024    1       1660    1863    1659    0.
CTRIA3   3025    1       1862    1659    1863    0.
CTRIA3   3026    1       1863    1861    1862    0.
CTRIA3   3027    1       1659    1862    1651    0.
CTRIA3   3028    1       1672    1850    1673    0.
CTRIA3   3029    1       1866    1673    1850    0.
CTRIA3   3030    1       1850    1849    1866    0.
CTRIA3   3031    1       1864    1866    1849    0.
CTRIA3   3032    1       1849    1848    1864    0.
CTRIA3   3033    1       1673    1866    1674    0.
CTRIA3   3034    1       1865    1674    1866    0.
CTRIA3   3035    1       1866    1864    1865    0.
CTRIA3   3036    1       1674    1865    1661    0.
CTRIA3   3037    1       1868    1870    1871    0.
CTRIA3   3038    1       1871    1867    1868    0.
CTRIA3   3039    1       1675    1870    1676    0.
CTRIA3   3040    1       1869    1676    1870    0.
CTRIA3   3041    1       1870    1868    1869    0.
CTRIA3   3042    1       1676    1869    1677    0.
CTRIA3   3043    1       1656    1875    1655    0.
CTRIA3   3044    1       1873    1655    1875    0.
CTRIA3   3045    1       1875    1874    1873    0.
CTRIA3   3046    1       1872    1873    1874    0.
CTRIA3   3047    1       1874    1867    1872    0.
CTRIA3   3048    1       1655    1873    1654    0.
CTRIA3   3049    1       1669    1878    1668    0.
CTRIA3   3050    1       1876    1668    1878    0.
CTRIA3   3051    1       1878    1877    1876    0.
CTRIA3   3052    1       1874    1876    1877    0.
CTRIA3   3053    1       1877    1867    1874    0.
CTRIA3   3054    1       1668    1876    1667    0.
CTRIA3   3055    1       1875    1667    1876    0.
CTRIA3   3056    1       1876    1874    1875    0.
CTRIA3   3057    1       1667    1875    1656    0.
CTRIA3   3058    1       1677    1869    1678    0.
CTRIA3   3059    1       1879    1678    1869    0.
CTRIA3   3060    1       1869    1868    1879    0.
CTRIA3   3061    1       1877    1879    1868    0.
CTRIA3   3062    1       1868    1867    1877    0.
CTRIA3   3063    1       1678    1879    1679    0.
CTRIA3   3064    1       1878    1679    1879    0.
CTRIA3   3065    1       1879    1877    1878    0.
CTRIA3   3066    1       1679    1878    1669    0.
CTRIA3   3067    1       1881    1755    1756    0.
CTRIA3   3068    1       1756    1880    1881    0.
CTRIA3   3069    1       1755    1881    1882    0.
CTRIA3   3070    1       1749    1882    1685    0.
CTRIA3   3071    1       1885    1685    1882    0.
CTRIA3   3072    1       1882    1881    1885    0.
CTRIA3   3073    1       1883    1885    1881    0.
CTRIA3   3074    1       1881    1880    1883    0.
CTRIA3   3075    1       1685    1885    1686    0.
CTRIA3   3076    1       1884    1686    1885    0.
CTRIA3   3077    1       1885    1883    1884    0.
CTRIA3   3078    1       1686    1884    1680    0.
CTRIA3   3079    1       1689    1888    1690    0.
CTRIA3   3080    1       1886    1690    1888    0.
CTRIA3   3081    1       1888    1887    1886    0.
CTRIA3   3082    1       1461    1886    1887    0.
CTRIA3   3083    1       1887    1457    1461    0.
CTRIA3   3084    1       1690    1886    1691    0.
CTRIA3   3085    1       1462    1691    1886    0.
CTRIA3   3086    1       1886    1461    1462    0.
CTRIA3   3087    1       1691    1462    1307    0.
CTRIA3   3088    1       1694    1898    1695    0.
CTRIA3   3089    1       1664    1891    1687    0.
CTRIA3   3090    1       1889    1687    1891    0.
CTRIA3   3091    1       1891    1890    1889    0.
CTRIA3   3092    1       1887    1889    1890    0.
CTRIA3   3093    1       1890    1457    1887    0.
CTRIA3   3094    1       1687    1889    1688    0.
CTRIA3   3095    1       1888    1688    1889    0.
CTRIA3   3096    1       1889    1887    1888    0.
CTRIA3   3097    1       1688    1888    1689    0.
CTRIA3   3098    1       1286    1464    1666    0.
CTRIA3   3099    1       1892    1666    1464    0.
CTRIA3   3100    1       1464    1463    1892    0.
CTRIA3   3101    1       1890    1892    1463    0.
CTRIA3   3102    1       1463    1457    1890    0.
CTRIA3   3103    1       1666    1892    1665    0.
CTRIA3   3104    1       1891    1665    1892    0.
CTRIA3   3105    1       1892    1890    1891    0.
CTRIA3   3106    1       1665    1891    1664    0.
CTRIA3   3107    1       1896    1695    1898    0.
CTRIA3   3108    1       1898    1897    1896    0.
CTRIA3   3109    1       1894    1896    1897    0.
CTRIA3   3110    1       1897    1893    1894    0.
CTRIA3   3111    1       1695    1896    1696    0.
CTRIA3   3112    1       1895    1696    1896    0.
CTRIA3   3113    1       1896    1894    1895    0.
CTRIA3   3114    1       1696    1895    1697    0.
CTRIA3   3115    1       1672    1901    1692    0.
CTRIA3   3116    1       1899    1692    1901    0.
CTRIA3   3117    1       1901    1900    1899    0.
CTRIA3   3118    1       1897    1899    1900    0.
CTRIA3   3119    1       1900    1893    1897    0.
CTRIA3   3120    1       1692    1899    1693    0.
CTRIA3   3121    1       1898    1693    1899    0.
CTRIA3   3122    1       1899    1897    1898    0.
CTRIA3   3123    1       1693    1898    1694    0.
CTRIA3   3124    1       1661    1904    1674    0.
CTRIA3   3125    1       1902    1674    1904    0.
CTRIA3   3126    1       1904    1903    1902    0.
CTRIA3   3127    1       1900    1902    1903    0.
CTRIA3   3128    1       1903    1893    1900    0.
CTRIA3   3129    1       1674    1902    1673    0.
CTRIA3   3130    1       1901    1673    1902    0.
CTRIA3   3131    1       1902    1900    1901    0.
CTRIA3   3132    1       1673    1901    1672    0.
CTRIA3   3133    1       1664    1907    1663    0.
CTRIA3   3134    1       1905    1663    1907    0.
CTRIA3   3135    1       1907    1906    1905    0.
CTRIA3   3136    1       1903    1905    1906    0.
CTRIA3   3137    1       1906    1893    1903    0.
CTRIA3   3138    1       1663    1905    1662    0.
CTRIA3   3139    1       1904    1662    1905    0.
CTRIA3   3140    1       1905    1903    1904    0.
CTRIA3   3141    1       1662    1904    1661    0.
CTRIA3   3142    1       1689    1910    1688    0.
CTRIA3   3143    1       1908    1688    1910    0.
CTRIA3   3144    1       1910    1909    1908    0.
CTRIA3   3145    1       1906    1908    1909    0.
CTRIA3   3146    1       1909    1893    1906    0.
CTRIA3   3147    1       1688    1908    1687    0.
CTRIA3   3148    1       1907    1687    1908    0.
CTRIA3   3149    1       1908    1906    1907    0.
CTRIA3   3150    1       1687    1907    1664    0.
CTRIA3   3151    1       1697    1895    1698    0.
CTRIA3   3152    1       1911    1698    1895    0.
CTRIA3   3153    1       1895    1894    1911    0.
CTRIA3   3154    1       1909    1911    1894    0.
CTRIA3   3155    1       1894    1893    1909    0.
CTRIA3   3156    1       1698    1911    1699    0.
CTRIA3   3157    1       1910    1699    1911    0.
CTRIA3   3158    1       1911    1909    1910    0.
CTRIA3   3159    1       1699    1910    1689    0.
CTRIA3   3160    1       1702    1917    1703    0.
CTRIA3   3161    1       1915    1703    1917    0.
CTRIA3   3162    1       1917    1916    1915    0.
CTRIA3   3163    1       1913    1915    1916    0.
CTRIA3   3164    1       1916    1912    1913    0.
CTRIA3   3165    1       1703    1915    1704    0.
CTRIA3   3166    1       1914    1704    1915    0.
CTRIA3   3167    1       1915    1913    1914    0.
CTRIA3   3168    1       1704    1914    1705    0.
CTRIA3   3169    1       1677    1920    1700    0.
CTRIA3   3170    1       1918    1700    1920    0.
CTRIA3   3171    1       1920    1919    1918    0.
CTRIA3   3172    1       1916    1918    1919    0.
CTRIA3   3173    1       1919    1912    1916    0.
CTRIA3   3174    1       1700    1918    1701    0.
CTRIA3   3175    1       1917    1701    1918    0.
CTRIA3   3176    1       1918    1916    1917    0.
CTRIA3   3177    1       1701    1917    1702    0.
CTRIA3   3178    1       1669    1923    1679    0.
CTRIA3   3179    1       1921    1679    1923    0.
CTRIA3   3180    1       1923    1922    1921    0.
CTRIA3   3181    1       1919    1921    1922    0.
CTRIA3   3182    1       1922    1912    1919    0.
CTRIA3   3183    1       1679    1921    1678    0.
CTRIA3   3184    1       1920    1678    1921    0.
CTRIA3   3185    1       1921    1919    1920    0.
CTRIA3   3186    1       1678    1920    1677    0.
CTRIA3   3187    1       1672    1926    1671    0.
CTRIA3   3188    1       1924    1671    1926    0.
CTRIA3   3189    1       1926    1925    1924    0.
CTRIA3   3190    1       1922    1924    1925    0.
CTRIA3   3191    1       1925    1912    1922    0.
CTRIA3   3192    1       1671    1924    1670    0.
CTRIA3   3193    1       1923    1670    1924    0.
CTRIA3   3194    1       1924    1922    1923    0.
CTRIA3   3195    1       1670    1923    1669    0.
CTRIA3   3196    1       1694    1929    1693    0.
CTRIA3   3197    1       1927    1693    1929    0.
CTRIA3   3198    1       1929    1928    1927    0.
CTRIA3   3199    1       1925    1927    1928    0.
CTRIA3   3200    1       1928    1912    1925    0.
CTRIA3   3201    1       1693    1927    1692    0.
CTRIA3   3202    1       1926    1692    1927    0.
CTRIA3   3203    1       1927    1925    1926    0.
CTRIA3   3204    1       1692    1926    1672    0.
CTRIA3   3205    1       1705    1914    1706    0.
CTRIA3   3206    1       1930    1706    1914    0.
CTRIA3   3207    1       1914    1913    1930    0.
CTRIA3   3208    1       1928    1930    1913    0.
CTRIA3   3209    1       1913    1912    1928    0.
CTRIA3   3210    1       1706    1930    1707    0.
CTRIA3   3211    1       1929    1707    1930    0.
CTRIA3   3212    1       1930    1928    1929    0.
CTRIA3   3213    1       1707    1929    1694    0.
CTRIA3   3214    1       1710    1936    1711    0.
CTRIA3   3215    1       1934    1711    1936    0.
CTRIA3   3216    1       1936    1935    1934    0.
CTRIA3   3217    1       1932    1934    1935    0.
CTRIA3   3218    1       1935    1931    1932    0.
CTRIA3   3219    1       1711    1934    1712    0.
CTRIA3   3220    1       1933    1712    1934    0.
CTRIA3   3221    1       1934    1932    1933    0.
CTRIA3   3222    1       1712    1933    1713    0.
CTRIA3   3223    1       1683    1939    1708    0.
CTRIA3   3224    1       1937    1708    1939    0.
CTRIA3   3225    1       1939    1938    1937    0.
CTRIA3   3226    1       1935    1937    1938    0.
CTRIA3   3227    1       1938    1931    1935    0.
CTRIA3   3228    1       1708    1937    1709    0.
CTRIA3   3229    1       1936    1709    1937    0.
CTRIA3   3230    1       1937    1935    1936    0.
CTRIA3   3231    1       1709    1936    1710    0.
CTRIA3   3232    1       1940    1684    1942    0.
CTRIA3   3233    1       1942    1941    1940    0.
CTRIA3   3234    1       1938    1940    1941    0.
CTRIA3   3235    1       1941    1931    1938    0.
CTRIA3   3236    1       1940    1938    1939    0.
CTRIA3   3237    1       1677    1945    1676    0.
CTRIA3   3238    1       1943    1676    1945    0.
CTRIA3   3239    1       1945    1944    1943    0.
CTRIA3   3240    1       1941    1943    1944    0.
CTRIA3   3241    1       1944    1931    1941    0.
CTRIA3   3242    1       1676    1943    1675    0.
CTRIA3   3243    1       1942    1675    1943    0.
CTRIA3   3244    1       1943    1941    1942    0.
CTRIA3   3245    1       1702    1948    1701    0.
CTRIA3   3246    1       1946    1701    1948    0.
CTRIA3   3247    1       1948    1947    1946    0.
CTRIA3   3248    1       1944    1946    1947    0.
CTRIA3   3249    1       1947    1931    1944    0.
CTRIA3   3250    1       1701    1946    1700    0.
CTRIA3   3251    1       1945    1700    1946    0.
CTRIA3   3252    1       1946    1944    1945    0.
CTRIA3   3253    1       1700    1945    1677    0.
CTRIA3   3254    1       1713    1933    1714    0.
CTRIA3   3255    1       1949    1714    1933    0.
CTRIA3   3256    1       1933    1932    1949    0.
CTRIA3   3257    1       1947    1949    1932    0.
CTRIA3   3258    1       1932    1931    1947    0.
CTRIA3   3259    1       1714    1949    1715    0.
CTRIA3   3260    1       1948    1715    1949    0.
CTRIA3   3261    1       1949    1947    1948    0.
CTRIA3   3262    1       1715    1948    1702    0.
CTRIA3   3263    1       1760    1950    1761    0.
CTRIA3   3264    1       1758    1951    1759    0.
CTRIA3   3265    1       1760    1759    1951    0.
CTRIA3   3266    1       1951    1950    1760    0.
CTRIA3   3267    1       1680    1954    1686    0.
CTRIA3   3268    1       1952    1686    1954    0.
CTRIA3   3269    1       1954    1953    1952    0.
CTRIA3   3270    1       1951    1952    1953    0.
CTRIA3   3271    1       1953    1950    1951    0.
CTRIA3   3272    1       1686    1952    1685    0.
CTRIA3   3273    1       1758    1685    1952    0.
CTRIA3   3274    1       1952    1951    1758    0.
CTRIA3   3275    1       1685    1758    1749    0.
CTRIA3   3276    1       1683    1957    1682    0.
CTRIA3   3277    1       1955    1682    1957    0.
CTRIA3   3278    1       1957    1956    1955    0.
CTRIA3   3279    1       1953    1955    1956    0.
CTRIA3   3280    1       1956    1950    1953    0.
CTRIA3   3281    1       1682    1955    1681    0.
CTRIA3   3282    1       1954    1681    1955    0.
CTRIA3   3283    1       1955    1953    1954    0.
CTRIA3   3284    1       1681    1954    1680    0.
CTRIA3   3285    1       1710    1960    1709    0.
CTRIA3   3286    1       1958    1709    1960    0.
CTRIA3   3287    1       1960    1959    1958    0.
CTRIA3   3288    1       1956    1958    1959    0.
CTRIA3   3289    1       1959    1950    1956    0.
CTRIA3   3290    1       1709    1958    1708    0.
CTRIA3   3291    1       1957    1708    1958    0.
CTRIA3   3292    1       1958    1956    1957    0.
CTRIA3   3293    1       1708    1957    1683    0.
CTRIA3   3294    1       1961    1750    1762    0.
CTRIA3   3295    1       1762    1761    1961    0.
CTRIA3   3296    1       1959    1961    1761    0.
CTRIA3   3297    1       1761    1950    1959    0.
CTRIA3   3298    1       1750    1961    1716    0.
CTRIA3   3299    1       1960    1716    1961    0.
CTRIA3   3300    1       1961    1959    1960    0.
CTRIA3   3301    1       1716    1960    1710    0.
CTRIA3   3302    1       1719    1967    1720    0.
CTRIA3   3303    1       1965    1720    1967    0.
CTRIA3   3304    1       1967    1966    1965    0.
CTRIA3   3305    1       1963    1965    1966    0.
CTRIA3   3306    1       1966    1962    1963    0.
CTRIA3   3307    1       1720    1965    1721    0.
CTRIA3   3308    1       1964    1721    1965    0.
CTRIA3   3309    1       1965    1963    1964    0.
CTRIA3   3310    1       1721    1964    1722    0.
CTRIA3   3311    1       1727    1986    1728    0.
CTRIA3   3312    1       1697    1970    1717    0.
CTRIA3   3313    1       1968    1717    1970    0.
CTRIA3   3314    1       1970    1969    1968    0.
CTRIA3   3315    1       1966    1968    1969    0.
CTRIA3   3316    1       1969    1962    1966    0.
CTRIA3   3317    1       1717    1968    1718    0.
CTRIA3   3318    1       1967    1718    1968    0.
CTRIA3   3319    1       1968    1966    1967    0.
CTRIA3   3320    1       1718    1967    1719    0.
CTRIA3   3321    1       1689    1973    1699    0.
CTRIA3   3322    1       1971    1699    1973    0.
CTRIA3   3323    1       1973    1972    1971    0.
CTRIA3   3324    1       1969    1971    1972    0.
CTRIA3   3325    1       1972    1962    1969    0.
CTRIA3   3326    1       1699    1971    1698    0.
CTRIA3   3327    1       1970    1698    1971    0.
CTRIA3   3328    1       1971    1969    1970    0.
CTRIA3   3329    1       1698    1970    1697    0.
CTRIA3   3330    1       1307    1976    1691    0.
CTRIA3   3331    1       1974    1691    1976    0.
CTRIA3   3332    1       1976    1975    1974    0.
CTRIA3   3333    1       1972    1974    1975    0.
CTRIA3   3334    1       1975    1962    1972    0.
CTRIA3   3335    1       1691    1974    1690    0.
CTRIA3   3336    1       1973    1690    1974    0.
CTRIA3   3337    1       1974    1972    1973    0.
CTRIA3   3338    1       1690    1973    1689    0.
CTRIA3   3339    1       1313    1979    1470    0.
CTRIA3   3340    1       1977    1470    1979    0.
CTRIA3   3341    1       1979    1978    1977    0.
CTRIA3   3342    1       1975    1977    1978    0.
CTRIA3   3343    1       1978    1962    1975    0.
CTRIA3   3344    1       1470    1977    1469    0.
CTRIA3   3345    1       1976    1469    1977    0.
CTRIA3   3346    1       1977    1975    1976    0.
CTRIA3   3347    1       1469    1976    1307    0.
CTRIA3   3348    1       1722    1964    1723    0.
CTRIA3   3349    1       1980    1723    1964    0.
CTRIA3   3350    1       1964    1963    1980    0.
CTRIA3   3351    1       1978    1980    1963    0.
CTRIA3   3352    1       1963    1962    1978    0.
CTRIA3   3353    1       1979    1724    1980    0.
CTRIA3   3354    1       1980    1978    1979    0.
CTRIA3   3355    1       1724    1979    1313    0.
CTRIA3   3356    1       1984    1728    1986    0.
CTRIA3   3357    1       1986    1985    1984    0.
CTRIA3   3358    1       1982    1984    1985    0.
CTRIA3   3359    1       1985    1981    1982    0.
CTRIA3   3360    1       1728    1984    1729    0.
CTRIA3   3361    1       1983    1729    1984    0.
CTRIA3   3362    1       1984    1982    1983    0.
CTRIA3   3363    1       1729    1983    1730    0.
CTRIA3   3364    1       1705    1989    1725    0.
CTRIA3   3365    1       1987    1725    1989    0.
CTRIA3   3366    1       1989    1988    1987    0.
CTRIA3   3367    1       1985    1987    1988    0.
CTRIA3   3368    1       1988    1981    1985    0.
CTRIA3   3369    1       1725    1987    1726    0.
CTRIA3   3370    1       1986    1726    1987    0.
CTRIA3   3371    1       1987    1985    1986    0.
CTRIA3   3372    1       1726    1986    1727    0.
CTRIA3   3373    1       1694    1992    1707    0.
CTRIA3   3374    1       1990    1707    1992    0.
CTRIA3   3375    1       1992    1991    1990    0.
CTRIA3   3376    1       1988    1990    1991    0.
CTRIA3   3377    1       1991    1981    1988    0.
CTRIA3   3378    1       1707    1990    1706    0.
CTRIA3   3379    1       1989    1706    1990    0.
CTRIA3   3380    1       1990    1988    1989    0.
CTRIA3   3381    1       1706    1989    1705    0.
CTRIA3   3382    1       1697    1995    1696    0.
CTRIA3   3383    1       1993    1696    1995    0.
CTRIA3   3384    1       1995    1994    1993    0.
CTRIA3   3385    1       1991    1993    1994    0.
CTRIA3   3386    1       1994    1981    1991    0.
CTRIA3   3387    1       1696    1993    1695    0.
CTRIA3   3388    1       1992    1695    1993    0.
CTRIA3   3389    1       1993    1991    1992    0.
CTRIA3   3390    1       1695    1992    1694    0.
CTRIA3   3391    1       1719    1998    1718    0.
CTRIA3   3392    1       1996    1718    1998    0.
CTRIA3   3393    1       1998    1997    1996    0.
CTRIA3   3394    1       1994    1996    1997    0.
CTRIA3   3395    1       1997    1981    1994    0.
CTRIA3   3396    1       1718    1996    1717    0.
CTRIA3   3397    1       1995    1717    1996    0.
CTRIA3   3398    1       1996    1994    1995    0.
CTRIA3   3399    1       1717    1995    1697    0.
CTRIA3   3400    1       1730    1983    1731    0.
CTRIA3   3401    1       1999    1731    1983    0.
CTRIA3   3402    1       1983    1982    1999    0.
CTRIA3   3403    1       1997    1999    1982    0.
CTRIA3   3404    1       1982    1981    1997    0.
CTRIA3   3405    1       1731    1999    1732    0.
CTRIA3   3406    1       1998    1732    1999    0.
CTRIA3   3407    1       1999    1997    1998    0.
CTRIA3   3408    1       1732    1998    1719    0.
CTRIA3   3409    1       1751    2005    1768    0.
CTRIA3   3410    1       2003    1768    2005    0.
CTRIA3   3411    1       2005    2004    2003    0.
CTRIA3   3412    1       2001    2003    2004    0.
CTRIA3   3413    1       2004    2000    2001    0.
CTRIA3   3414    1       1768    2003    1769    0.
CTRIA3   3415    1       2003    2001    2002    0.
CTRIA3   3416    1       1713    2008    1733    0.
CTRIA3   3417    1       2006    1733    2008    0.
CTRIA3   3418    1       2008    2007    2006    0.
CTRIA3   3419    1       2004    2006    2007    0.
CTRIA3   3420    1       2007    2000    2004    0.
CTRIA3   3421    1       1733    2006    1734    0.
CTRIA3   3422    1       2005    1734    2006    0.
CTRIA3   3423    1       2006    2004    2005    0.
CTRIA3   3424    1       1734    2005    1751    0.
CTRIA3   3425    1       1702    2011    1715    0.
CTRIA3   3426    1       2009    1715    2011    0.
CTRIA3   3427    1       2011    2010    2009    0.
CTRIA3   3428    1       2007    2009    2010    0.
CTRIA3   3429    1       2010    2000    2007    0.
CTRIA3   3430    1       1715    2009    1714    0.
CTRIA3   3431    1       2008    1714    2009    0.
CTRIA3   3432    1       2009    2007    2008    0.
CTRIA3   3433    1       1714    2008    1713    0.
CTRIA3   3434    1       1705    2014    1704    0.
CTRIA3   3435    1       2012    1704    2014    0.
CTRIA3   3436    1       2014    2013    2012    0.
CTRIA3   3437    1       2010    2012    2013    0.
CTRIA3   3438    1       2013    2000    2010    0.
CTRIA3   3439    1       1704    2012    1703    0.
CTRIA3   3440    1       2011    1703    2012    0.
CTRIA3   3441    1       2012    2010    2011    0.
CTRIA3   3442    1       1703    2011    1702    0.
CTRIA3   3443    1       1727    2017    1726    0.
CTRIA3   3444    1       2015    1726    2017    0.
CTRIA3   3445    1       2017    2016    2015    0.
CTRIA3   3446    1       2013    2015    2016    0.
CTRIA3   3447    1       2016    2000    2013    0.
CTRIA3   3448    1       1726    2015    1725    0.
CTRIA3   3449    1       2014    1725    2015    0.
CTRIA3   3450    1       2015    2013    2014    0.
CTRIA3   3451    1       1725    2014    1705    0.
CTRIA3   3452    1       2018    1735    2002    0.
CTRIA3   3453    1       2002    2001    2018    0.
CTRIA3   3454    1       2016    2018    2001    0.
CTRIA3   3455    1       2001    2000    2016    0.
CTRIA3   3456    1       1735    2018    1736    0.
CTRIA3   3457    1       2017    1736    2018    0.
CTRIA3   3458    1       2018    2016    2017    0.
CTRIA3   3459    1       1736    2017    1727    0.
CTRIA3   3460    1       1710    2019    1716    0.
CTRIA3   3461    1       1763    1716    2019    0.
CTRIA3   3462    1       2019    1764    1763    0.
CTRIA3   3463    1       1716    1763    1750    0.
CTRIA3   3464    1       1713    2022    1712    0.
CTRIA3   3465    1       2020    1712    2022    0.
CTRIA3   3466    1       2022    2021    2020    0.
CTRIA3   3467    1       1764    2020    2021    0.
CTRIA3   3468    1       2021    1765    1764    0.
CTRIA3   3469    1       1712    2020    1711    0.
CTRIA3   3470    1       2019    1711    2020    0.
CTRIA3   3471    1       2020    1764    2019    0.
CTRIA3   3472    1       1711    2019    1710    0.
CTRIA3   3473    1       1751    1767    1734    0.
CTRIA3   3474    1       2023    1734    1767    0.
CTRIA3   3475    1       1767    1766    2023    0.
CTRIA3   3476    1       2021    2023    1766    0.
CTRIA3   3477    1       1766    1765    2021    0.
CTRIA3   3478    1       1734    2023    1733    0.
CTRIA3   3479    1       2022    1733    2023    0.
CTRIA3   3480    1       2023    2021    2022    0.
CTRIA3   3481    1       1733    2022    1713    0.
CTRIA3   3482    1       1748    1788    1782    0.
CTRIA3   3483    1       1748    1747    1788    0.
CTRIA3   3484    1       1369    1795    1742    0.
CTRIA3   3485    1       1369    1402    1795    0.
CTRIA3   3486    1       1882    1749    1757    0.
CTRIA3   3487    1       1755    1882    1757    0.
CTRIA3   3488    1       2003    2002    1769    0.
CTRIA3   3489    1       1752    1769    2002    0.
CTRIA3   3490    1       1735    1752    2002    0.
CTRIA3   3491    1       2024    1377    1781    0.
CTRIA3   3492    1       1377    2024    1514    0.
CTRIA3   3493    1       1781    2025    2024    0.
CTRIA3   3494    1       1722    1723    2028    0.
CTRIA3   3495    1       2026    2028    1723    0.
CTRIA3   3496    1       2028    2026    2027    0.
CTRIA3   3497    1       1517    2027    2026    0.
CTRIA3   3498    1       2027    1517    1514    0.
CTRIA3   3499    1       1518    2026    1724    0.
CTRIA3   3500    1       2026    1518    1517    0.
CTRIA3   3501    1       1724    1313    1518    0.
CTRIA3   3502    1       1754    1738    2025    0.
CTRIA3   3503    1       2029    2025    1738    0.
CTRIA3   3504    1       2025    2029    2024    0.
CTRIA3   3505    1       2027    2024    2029    0.
CTRIA3   3506    1       2024    2027    1514    0.
CTRIA3   3507    1       1738    1737    2029    0.
CTRIA3   3508    1       2028    2029    1737    0.
CTRIA3   3509    1       2029    2028    2027    0.
CTRIA3   3510    1       1737    1722    2028    0.
CTRIA3   3511    1       1777    1776    2030    0.
CTRIA3   3512    1       1779    1778    2031    0.
CTRIA3   3513    1       1777    2031    1778    0.
CTRIA3   3514    1       2031    1777    2030    0.
CTRIA3   3515    1       1722    1737    2034    0.
CTRIA3   3516    1       2032    2034    1737    0.
CTRIA3   3517    1       2034    2032    2033    0.
CTRIA3   3518    1       2031    2033    2032    0.
CTRIA3   3519    1       2033    2031    2030    0.
CTRIA3   3520    1       1737    1738    2032    0.
CTRIA3   3521    1       1779    2032    1738    0.
CTRIA3   3522    1       2032    1779    2031    0.
CTRIA3   3523    1       1738    1754    1779    0.
CTRIA3   3524    1       1719    1720    2037    0.
CTRIA3   3525    1       2035    2037    1720    0.
CTRIA3   3526    1       2037    2035    2036    0.
CTRIA3   3527    1       2033    2036    2035    0.
CTRIA3   3528    1       2036    2033    2030    0.
CTRIA3   3529    1       1720    1721    2035    0.
CTRIA3   3530    1       2034    2035    1721    0.
CTRIA3   3531    1       2035    2034    2033    0.
CTRIA3   3532    1       1721    1722    2034    0.
CTRIA3   3533    1       1730    1731    2040    0.
CTRIA3   3534    1       2038    2040    1731    0.
CTRIA3   3535    1       2040    2038    2039    0.
CTRIA3   3536    1       2036    2039    2038    0.
CTRIA3   3537    1       2039    2036    2030    0.
CTRIA3   3538    1       1731    1732    2038    0.
CTRIA3   3539    1       2037    2038    1732    0.
CTRIA3   3540    1       2038    2037    2036    0.
CTRIA3   3541    1       1732    1719    2037    0.
CTRIA3   3542    1       2041    1775    1753    0.
CTRIA3   3543    1       1775    2041    1776    0.
CTRIA3   3544    1       2039    1776    2041    0.
CTRIA3   3545    1       1776    2039    2030    0.
CTRIA3   3546    1       1753    1739    2041    0.
CTRIA3   3547    1       2040    2041    1739    0.
CTRIA3   3548    1       2041    2040    2039    0.
CTRIA3   3549    1       1739    1730    2040    0.
CTRIA3   3550    1       1730    1739    2042    0.
CTRIA3   3551    1       1774    2042    1739    0.
CTRIA3   3552    1       2042    1774    1773    0.
CTRIA3   3553    1       1739    1753    1774    0.
CTRIA3   3554    1       1727    1728    2045    0.
CTRIA3   3555    1       2043    2045    1728    0.
CTRIA3   3556    1       2045    2043    2044    0.
CTRIA3   3557    1       1773    2044    2043    0.
CTRIA3   3558    1       2044    1773    1772    0.
CTRIA3   3559    1       1728    1729    2043    0.
CTRIA3   3560    1       2042    2043    1729    0.
CTRIA3   3561    1       2043    2042    1773    0.
CTRIA3   3562    1       1729    1730    2042    0.
CTRIA3   3563    1       1752    1735    1770    0.
CTRIA3   3564    1       2046    1770    1735    0.
CTRIA3   3565    1       1770    2046    1771    0.
CTRIA3   3566    1       2044    1771    2046    0.
CTRIA3   3567    1       1771    2044    1772    0.
CTRIA3   3568    1       1735    1736    2046    0.
CTRIA3   3569    1       2045    2046    1736    0.
CTRIA3   3570    1       2046    2045    2044    0.
CTRIA3   3571    1       1736    1727    2045    0.
CTRIA3   3572    1       2025    1780    1754    0.
CTRIA3   3573    1       1781    1780    2025    0.
CQUAD4   3574    1       1781    1377    1606    2047    0.
CQUAD4   3575    1       1756    1755    2048    2049    0.
CQUAD4   3576    1       1755    1757    2050    2048    0.
CQUAD4   3577    1       1757    1749    2051    2050    0.
CQUAD4   3578    1       1749    1758    2052    2051    0.
CQUAD4   3579    1       1758    1759    2053    2052    0.
CQUAD4   3580    1       1759    1760    2054    2053    0.
CQUAD4   3581    1       1760    1761    2055    2054    0.
CQUAD4   3582    1       1761    1762    2056    2055    0.
CQUAD4   3583    1       1762    1750    2057    2056    0.
CQUAD4   3584    1       1750    1763    2058    2057    0.
CQUAD4   3585    1       1763    1764    2059    2058    0.
CQUAD4   3586    1       1764    1765    2060    2059    0.
CQUAD4   3587    1       1765    1766    2061    2060    0.
CQUAD4   3588    1       1766    1767    2062    2061    0.
CQUAD4   3589    1       1767    1751    2063    2062    0.
CQUAD4   3590    1       1751    1768    2064    2063    0.
CQUAD4   3591    1       1768    1769    2065    2064    0.
CQUAD4   3592    1       1769    1752    2066    2065    0.
CQUAD4   3593    1       1752    1770    2067    2066    0.
CQUAD4   3594    1       1770    1771    2068    2067    0.
CQUAD4   3595    1       1771    1772    2069    2068    0.
CQUAD4   3596    1       1772    1773    2070    2069    0.
CQUAD4   3597    1       1773    1774    2071    2070    0.
CQUAD4   3598    1       1774    1753    2072    2071    0.
CQUAD4   3599    1       1753    1775    2073    2072    0.
CQUAD4   3600    1       1775    1776    2074    2073    0.
CQUAD4   3601    1       1776    1777    2075    2074    0.
CQUAD4   3602    1       1777    1778    2076    2075    0.
CQUAD4   3603    1       1778    1779    2077    2076    0.
CQUAD4   3604    1       1779    1754    2078    2077    0.
CQUAD4   3605    1       1754    1780    2079    2078    0.
CQUAD4   3606    1       1780    1781    2047    2079    0.
CTRIA3   3607    1       12      173     2080    0.
CTRIA3   3608    1       2208    2080    173     0.
CTRIA3   3609    1       173     172     2208    0.
CTRIA3   3610    1       2206    2208    172     0.
CTRIA3   3611    1       172     171     2206    0.
CTRIA3   3612    1       2080    2208    2081    0.
CTRIA3   3613    1       2207    2081    2208    0.
CTRIA3   3614    1       2208    2206    2207    0.
CTRIA3   3615    1       2081    2207    2082    0.
CTRIA3   3616    1       2166    2210    2172    0.
CTRIA3   3617    1       2173    2172    2210    0.
CTRIA3   3618    1       2210    2209    2173    0.
CTRIA3   3619    1       2082    2207    2083    0.
CTRIA3   3620    1       2211    2083    2207    0.
CTRIA3   3621    1       2207    2206    2211    0.
CTRIA3   3622    1       2209    2211    2206    0.
CTRIA3   3623    1       2206    171     2209    0.
CTRIA3   3624    1       2083    2211    2084    0.
CTRIA3   3625    1       2210    2084    2211    0.
CTRIA3   3626    1       2211    2209    2210    0.
CTRIA3   3627    1       2084    2210    2166    0.
CTRIA3   3628    1       2087    2214    2088    0.
CTRIA3   3629    1       2212    2088    2214    0.
CTRIA3   3630    1       2214    2213    2212    0.
CTRIA3   3631    1       1786    2212    2213    0.
CTRIA3   3632    1       2213    1782    1786    0.
CTRIA3   3633    1       2088    2212    2089    0.
CTRIA3   3634    1       1787    2089    2212    0.
CTRIA3   3635    1       2212    1786    1787    0.
CTRIA3   3636    1       2092    2223    2093    0.
CTRIA3   3637    1       2167    2217    2085    0.
CTRIA3   3638    1       2215    2085    2217    0.
CTRIA3   3639    1       2217    2216    2215    0.
CTRIA3   3640    1       2213    2215    2216    0.
CTRIA3   3641    1       2216    1782    2213    0.
CTRIA3   3642    1       2085    2215    2086    0.
CTRIA3   3643    1       2214    2086    2215    0.
CTRIA3   3644    1       2215    2213    2214    0.
CTRIA3   3645    1       2086    2214    2087    0.
CTRIA3   3646    1       2217    2169    2168    0.
CTRIA3   3647    1       2168    2216    2217    0.
CTRIA3   3648    1       2169    2217    2167    0.
CTRIA3   3649    1       2221    2093    2223    0.
CTRIA3   3650    1       2223    2222    2221    0.
CTRIA3   3651    1       2219    2221    2222    0.
CTRIA3   3652    1       2222    2218    2219    0.
CTRIA3   3653    1       2093    2221    2094    0.
CTRIA3   3654    1       2220    2094    2221    0.
CTRIA3   3655    1       2221    2219    2220    0.
CTRIA3   3656    1       2094    2220    2095    0.
CTRIA3   3657    1       2082    2226    2090    0.
CTRIA3   3658    1       2224    2090    2226    0.
CTRIA3   3659    1       2226    2225    2224    0.
CTRIA3   3660    1       2222    2224    2225    0.
CTRIA3   3661    1       2225    2218    2222    0.
CTRIA3   3662    1       2090    2224    2091    0.
CTRIA3   3663    1       2223    2091    2224    0.
CTRIA3   3664    1       2224    2222    2223    0.
CTRIA3   3665    1       2091    2223    2092    0.
CTRIA3   3666    1       2166    2229    2084    0.
CTRIA3   3667    1       2227    2084    2229    0.
CTRIA3   3668    1       2229    2228    2227    0.
CTRIA3   3669    1       2225    2227    2228    0.
CTRIA3   3670    1       2228    2218    2225    0.
CTRIA3   3671    1       2084    2227    2083    0.
CTRIA3   3672    1       2226    2083    2227    0.
CTRIA3   3673    1       2227    2225    2226    0.
CTRIA3   3674    1       2083    2226    2082    0.
CTRIA3   3675    1       2167    2232    2170    0.
CTRIA3   3676    1       2230    2170    2232    0.
CTRIA3   3677    1       2232    2231    2230    0.
CTRIA3   3678    1       2228    2230    2231    0.
CTRIA3   3679    1       2231    2218    2228    0.
CTRIA3   3680    1       2170    2230    2171    0.
CTRIA3   3681    1       2229    2171    2230    0.
CTRIA3   3682    1       2230    2228    2229    0.
CTRIA3   3683    1       2171    2229    2166    0.
CTRIA3   3684    1       2087    2235    2086    0.
CTRIA3   3685    1       2233    2086    2235    0.
CTRIA3   3686    1       2235    2234    2233    0.
CTRIA3   3687    1       2231    2233    2234    0.
CTRIA3   3688    1       2234    2218    2231    0.
CTRIA3   3689    1       2086    2233    2085    0.
CTRIA3   3690    1       2232    2085    2233    0.
CTRIA3   3691    1       2233    2231    2232    0.
CTRIA3   3692    1       2085    2232    2167    0.
CTRIA3   3693    1       2095    2220    2096    0.
CTRIA3   3694    1       2236    2096    2220    0.
CTRIA3   3695    1       2220    2219    2236    0.
CTRIA3   3696    1       2234    2236    2219    0.
CTRIA3   3697    1       2219    2218    2234    0.
CTRIA3   3698    1       2096    2236    2097    0.
CTRIA3   3699    1       2235    2097    2236    0.
CTRIA3   3700    1       2236    2234    2235    0.
CTRIA3   3701    1       2097    2235    2087    0.
CTRIA3   3702    1       2100    2242    2101    0.
CTRIA3   3703    1       2240    2101    2242    0.
CTRIA3   3704    1       2242    2241    2240    0.
CTRIA3   3705    1       2238    2240    2241    0.
CTRIA3   3706    1       2241    2237    2238    0.
CTRIA3   3707    1       2101    2240    2102    0.
CTRIA3   3708    1       2239    2102    2240    0.
CTRIA3   3709    1       2240    2238    2239    0.
CTRIA3   3710    1       2102    2239    2103    0.
CTRIA3   3711    1       33      2245    2098    0.
CTRIA3   3712    1       2243    2098    2245    0.
CTRIA3   3713    1       2245    2244    2243    0.
CTRIA3   3714    1       2241    2243    2244    0.
CTRIA3   3715    1       2244    2237    2241    0.
CTRIA3   3716    1       2098    2243    2099    0.
CTRIA3   3717    1       2242    2099    2243    0.
CTRIA3   3718    1       2243    2241    2242    0.
CTRIA3   3719    1       2099    2242    2100    0.
CTRIA3   3720    1       12      2248    35      0.
CTRIA3   3721    1       2246    35      2248    0.
CTRIA3   3722    1       2248    2247    2246    0.
CTRIA3   3723    1       2244    2246    2247    0.
CTRIA3   3724    1       2247    2237    2244    0.
CTRIA3   3725    1       35      2246    34      0.
CTRIA3   3726    1       2245    34      2246    0.
CTRIA3   3727    1       2246    2244    2245    0.
CTRIA3   3728    1       34      2245    33      0.
CTRIA3   3729    1       2082    2251    2081    0.
CTRIA3   3730    1       2249    2081    2251    0.
CTRIA3   3731    1       2251    2250    2249    0.
CTRIA3   3732    1       2247    2249    2250    0.
CTRIA3   3733    1       2250    2237    2247    0.
CTRIA3   3734    1       2081    2249    2080    0.
CTRIA3   3735    1       2248    2080    2249    0.
CTRIA3   3736    1       2249    2247    2248    0.
CTRIA3   3737    1       2080    2248    12      0.
CTRIA3   3738    1       2092    2254    2091    0.
CTRIA3   3739    1       2252    2091    2254    0.
CTRIA3   3740    1       2254    2253    2252    0.
CTRIA3   3741    1       2250    2252    2253    0.
CTRIA3   3742    1       2253    2237    2250    0.
CTRIA3   3743    1       2091    2252    2090    0.
CTRIA3   3744    1       2251    2090    2252    0.
CTRIA3   3745    1       2252    2250    2251    0.
CTRIA3   3746    1       2090    2251    2082    0.
CTRIA3   3747    1       2103    2239    2104    0.
CTRIA3   3748    1       2255    2104    2239    0.
CTRIA3   3749    1       2239    2238    2255    0.
CTRIA3   3750    1       2253    2255    2238    0.
CTRIA3   3751    1       2238    2237    2253    0.
CTRIA3   3752    1       2104    2255    2105    0.
CTRIA3   3753    1       2254    2105    2255    0.
CTRIA3   3754    1       2255    2253    2254    0.
CTRIA3   3755    1       2105    2254    2092    0.
CTRIA3   3756    1       65      278     2106    0.
CTRIA3   3757    1       2258    2106    278     0.
CTRIA3   3758    1       278     277     2258    0.
CTRIA3   3759    1       2256    2258    277     0.
CTRIA3   3760    1       277     276     2256    0.
CTRIA3   3761    1       2106    2258    2107    0.
CTRIA3   3762    1       2257    2107    2258    0.
CTRIA3   3763    1       2258    2256    2257    0.
CTRIA3   3764    1       2107    2257    2108    0.
CTRIA3   3765    1       2100    2261    2099    0.
CTRIA3   3766    1       2259    2099    2261    0.
CTRIA3   3767    1       2261    2260    2259    0.
CTRIA3   3768    1       286     2259    2260    0.
CTRIA3   3769    1       2260    276     286     0.
CTRIA3   3770    1       2099    2259    2098    0.
CTRIA3   3771    1       287     2098    2259    0.
CTRIA3   3772    1       2259    286     287     0.
CTRIA3   3773    1       2098    287     33      0.
CTRIA3   3774    1       2108    2257    2109    0.
CTRIA3   3775    1       2262    2109    2257    0.
CTRIA3   3776    1       2257    2256    2262    0.
CTRIA3   3777    1       2260    2262    2256    0.
CTRIA3   3778    1       2256    276     2260    0.
CTRIA3   3779    1       2109    2262    2110    0.
CTRIA3   3780    1       2261    2110    2262    0.
CTRIA3   3781    1       2262    2260    2261    0.
CTRIA3   3782    1       2110    2261    2100    0.
CTRIA3   3783    1       2115    2275    2116    0.
CTRIA3   3784    1       2095    2265    2111    0.
CTRIA3   3785    1       2263    2111    2265    0.
CTRIA3   3786    1       2265    2264    2263    0.
CTRIA3   3787    1       2111    2263    2112    0.
CTRIA3   3788    1       2087    2268    2097    0.
CTRIA3   3789    1       2266    2097    2268    0.
CTRIA3   3790    1       2268    2267    2266    0.
CTRIA3   3791    1       2264    2266    2267    0.
CTRIA3   3792    1       2097    2266    2096    0.
CTRIA3   3793    1       2265    2096    2266    0.
CTRIA3   3794    1       2266    2264    2265    0.
CTRIA3   3795    1       2096    2265    2095    0.
CTRIA3   3796    1       2089    2269    2088    0.
CTRIA3   3797    1       2268    2088    2269    0.
CTRIA3   3798    1       2269    2267    2268    0.
CTRIA3   3799    1       2088    2268    2087    0.
CTRIA3   3800    1       2273    2116    2275    0.
CTRIA3   3801    1       2275    2274    2273    0.
CTRIA3   3802    1       2271    2273    2274    0.
CTRIA3   3803    1       2274    2270    2271    0.
CTRIA3   3804    1       2116    2273    2117    0.
CTRIA3   3805    1       2272    2117    2273    0.
CTRIA3   3806    1       2273    2271    2272    0.
CTRIA3   3807    1       2103    2278    2113    0.
CTRIA3   3808    1       2276    2113    2278    0.
CTRIA3   3809    1       2278    2277    2276    0.
CTRIA3   3810    1       2274    2276    2277    0.
CTRIA3   3811    1       2277    2270    2274    0.
CTRIA3   3812    1       2113    2276    2114    0.
CTRIA3   3813    1       2275    2114    2276    0.
CTRIA3   3814    1       2276    2274    2275    0.
CTRIA3   3815    1       2114    2275    2115    0.
CTRIA3   3816    1       2092    2281    2105    0.
CTRIA3   3817    1       2279    2105    2281    0.
CTRIA3   3818    1       2281    2280    2279    0.
CTRIA3   3819    1       2277    2279    2280    0.
CTRIA3   3820    1       2280    2270    2277    0.
CTRIA3   3821    1       2105    2279    2104    0.
CTRIA3   3822    1       2278    2104    2279    0.
CTRIA3   3823    1       2279    2277    2278    0.
CTRIA3   3824    1       2104    2278    2103    0.
CTRIA3   3825    1       2095    2284    2094    0.
CTRIA3   3826    1       2282    2094    2284    0.
CTRIA3   3827    1       2284    2283    2282    0.
CTRIA3   3828    1       2280    2282    2283    0.
CTRIA3   3829    1       2283    2270    2280    0.
CTRIA3   3830    1       2094    2282    2093    0.
CTRIA3   3831    1       2281    2093    2282    0.
CTRIA3   3832    1       2282    2280    2281    0.
CTRIA3   3833    1       2093    2281    2092    0.
CTRIA3   3834    1       2285    2112    2287    0.
CTRIA3   3835    1       2287    2286    2285    0.
CTRIA3   3836    1       2283    2285    2286    0.
CTRIA3   3837    1       2286    2270    2283    0.
CTRIA3   3838    1       2112    2285    2111    0.
CTRIA3   3839    1       2284    2111    2285    0.
CTRIA3   3840    1       2285    2283    2284    0.
CTRIA3   3841    1       2111    2284    2095    0.
CTRIA3   3842    1       2272    2271    2288    0.
CTRIA3   3843    1       2286    2288    2271    0.
CTRIA3   3844    1       2271    2270    2286    0.
CTRIA3   3845    1       2288    2286    2287    0.
CTRIA3   3846    1       2120    2294    2121    0.
CTRIA3   3847    1       2292    2121    2294    0.
CTRIA3   3848    1       2294    2293    2292    0.
CTRIA3   3849    1       2290    2292    2293    0.
CTRIA3   3850    1       2293    2289    2290    0.
CTRIA3   3851    1       2121    2292    2122    0.
CTRIA3   3852    1       2291    2122    2292    0.
CTRIA3   3853    1       2292    2290    2291    0.
CTRIA3   3854    1       2122    2291    2123    0.
CTRIA3   3855    1       2108    2297    2118    0.
CTRIA3   3856    1       2295    2118    2297    0.
CTRIA3   3857    1       2297    2296    2295    0.
CTRIA3   3858    1       2293    2295    2296    0.
CTRIA3   3859    1       2296    2289    2293    0.
CTRIA3   3860    1       2118    2295    2119    0.
CTRIA3   3861    1       2294    2119    2295    0.
CTRIA3   3862    1       2295    2293    2294    0.
CTRIA3   3863    1       2119    2294    2120    0.
CTRIA3   3864    1       2100    2300    2110    0.
CTRIA3   3865    1       2298    2110    2300    0.
CTRIA3   3866    1       2300    2299    2298    0.
CTRIA3   3867    1       2296    2298    2299    0.
CTRIA3   3868    1       2299    2289    2296    0.
CTRIA3   3869    1       2110    2298    2109    0.
CTRIA3   3870    1       2297    2109    2298    0.
CTRIA3   3871    1       2298    2296    2297    0.
CTRIA3   3872    1       2109    2297    2108    0.
CTRIA3   3873    1       2103    2303    2102    0.
CTRIA3   3874    1       2301    2102    2303    0.
CTRIA3   3875    1       2303    2302    2301    0.
CTRIA3   3876    1       2299    2301    2302    0.
CTRIA3   3877    1       2302    2289    2299    0.
CTRIA3   3878    1       2102    2301    2101    0.
CTRIA3   3879    1       2300    2101    2301    0.
CTRIA3   3880    1       2301    2299    2300    0.
CTRIA3   3881    1       2101    2300    2100    0.
CTRIA3   3882    1       2115    2306    2114    0.
CTRIA3   3883    1       2304    2114    2306    0.
CTRIA3   3884    1       2306    2305    2304    0.
CTRIA3   3885    1       2302    2304    2305    0.
CTRIA3   3886    1       2305    2289    2302    0.
CTRIA3   3887    1       2114    2304    2113    0.
CTRIA3   3888    1       2303    2113    2304    0.
CTRIA3   3889    1       2304    2302    2303    0.
CTRIA3   3890    1       2113    2303    2103    0.
CTRIA3   3891    1       2123    2291    2124    0.
CTRIA3   3892    1       2307    2124    2291    0.
CTRIA3   3893    1       2291    2290    2307    0.
CTRIA3   3894    1       2305    2307    2290    0.
CTRIA3   3895    1       2290    2289    2305    0.
CTRIA3   3896    1       2124    2307    2125    0.
CTRIA3   3897    1       2306    2125    2307    0.
CTRIA3   3898    1       2307    2305    2306    0.
CTRIA3   3899    1       2125    2306    2115    0.
CTRIA3   3900    1       2128    2313    2129    0.
CTRIA3   3901    1       2311    2129    2313    0.
CTRIA3   3902    1       2313    2312    2311    0.
CTRIA3   3903    1       2309    2311    2312    0.
CTRIA3   3904    1       2312    2308    2309    0.
CTRIA3   3905    1       2129    2311    2130    0.
CTRIA3   3906    1       2310    2130    2311    0.
CTRIA3   3907    1       2311    2309    2310    0.
CTRIA3   3908    1       2130    2310    2131    0.
CTRIA3   3909    1       99      2316    2126    0.
CTRIA3   3910    1       2314    2126    2316    0.
CTRIA3   3911    1       2316    2315    2314    0.
CTRIA3   3912    1       2312    2314    2315    0.
CTRIA3   3913    1       2315    2308    2312    0.
CTRIA3   3914    1       2126    2314    2127    0.
CTRIA3   3915    1       2313    2127    2314    0.
CTRIA3   3916    1       2314    2312    2313    0.
CTRIA3   3917    1       2127    2313    2128    0.
CTRIA3   3918    1       65      2319    101     0.
CTRIA3   3919    1       2317    101     2319    0.
CTRIA3   3920    1       2319    2318    2317    0.
CTRIA3   3921    1       2315    2317    2318    0.
CTRIA3   3922    1       2318    2308    2315    0.
CTRIA3   3923    1       101     2317    100     0.
CTRIA3   3924    1       2316    100     2317    0.
CTRIA3   3925    1       2317    2315    2316    0.
CTRIA3   3926    1       100     2316    99      0.
CTRIA3   3927    1       2108    2322    2107    0.
CTRIA3   3928    1       2320    2107    2322    0.
CTRIA3   3929    1       2322    2321    2320    0.
CTRIA3   3930    1       2318    2320    2321    0.
CTRIA3   3931    1       2321    2308    2318    0.
CTRIA3   3932    1       2107    2320    2106    0.
CTRIA3   3933    1       2319    2106    2320    0.
CTRIA3   3934    1       2320    2318    2319    0.
CTRIA3   3935    1       2106    2319    65      0.
CTRIA3   3936    1       2120    2325    2119    0.
CTRIA3   3937    1       2323    2119    2325    0.
CTRIA3   3938    1       2325    2324    2323    0.
CTRIA3   3939    1       2321    2323    2324    0.
CTRIA3   3940    1       2324    2308    2321    0.
CTRIA3   3941    1       2119    2323    2118    0.
CTRIA3   3942    1       2322    2118    2323    0.
CTRIA3   3943    1       2323    2321    2322    0.
CTRIA3   3944    1       2118    2322    2108    0.
CTRIA3   3945    1       2131    2310    2132    0.
CTRIA3   3946    1       2326    2132    2310    0.
CTRIA3   3947    1       2310    2309    2326    0.
CTRIA3   3948    1       2324    2326    2309    0.
CTRIA3   3949    1       2309    2308    2324    0.
CTRIA3   3950    1       2132    2326    2133    0.
CTRIA3   3951    1       2325    2133    2326    0.
CTRIA3   3952    1       2326    2324    2325    0.
CTRIA3   3953    1       2133    2325    2120    0.
CTRIA3   3954    1       2327    2180    160     0.
CTRIA3   3955    1       160     419     2327    0.
CTRIA3   3956    1       2180    2327    2328    0.
CTRIA3   3957    1       2128    2331    2127    0.
CTRIA3   3958    1       2329    2127    2331    0.
CTRIA3   3959    1       2331    2330    2329    0.
CTRIA3   3960    1       422     2329    2330    0.
CTRIA3   3961    1       2330    419     422     0.
CTRIA3   3962    1       2127    2329    2126    0.
CTRIA3   3963    1       423     2126    2329    0.
CTRIA3   3964    1       2329    422     423     0.
CTRIA3   3965    1       2126    423     99      0.
CTRIA3   3966    1       2174    2328    2134    0.
CTRIA3   3967    1       2332    2134    2328    0.
CTRIA3   3968    1       2328    2327    2332    0.
CTRIA3   3969    1       2330    2332    2327    0.
CTRIA3   3970    1       2327    419     2330    0.
CTRIA3   3971    1       2134    2332    2135    0.
CTRIA3   3972    1       2331    2135    2332    0.
CTRIA3   3973    1       2332    2330    2331    0.
CTRIA3   3974    1       2135    2331    2128    0.
CTRIA3   3975    1       2138    2337    2139    0.
CTRIA3   3976    1       2335    2139    2337    0.
CTRIA3   3977    1       2337    2336    2335    0.
CTRIA3   3978    1       2333    2335    2336    0.
CTRIA3   3979    1       2139    2335    2140    0.
CTRIA3   3980    1       2334    2140    2335    0.
CTRIA3   3981    1       2335    2333    2334    0.
CTRIA3   3982    1       2140    2334    2141    0.
CTRIA3   3983    1       2123    2340    2136    0.
CTRIA3   3984    1       2338    2136    2340    0.
CTRIA3   3985    1       2340    2339    2338    0.
CTRIA3   3986    1       2336    2338    2339    0.
CTRIA3   3987    1       2136    2338    2137    0.
CTRIA3   3988    1       2337    2137    2338    0.
CTRIA3   3989    1       2338    2336    2337    0.
CTRIA3   3990    1       2137    2337    2138    0.
CTRIA3   3991    1       2115    2343    2125    0.
CTRIA3   3992    1       2341    2125    2343    0.
CTRIA3   3993    1       2343    2342    2341    0.
CTRIA3   3994    1       2339    2341    2342    0.
CTRIA3   3995    1       2125    2341    2124    0.
CTRIA3   3996    1       2340    2124    2341    0.
CTRIA3   3997    1       2341    2339    2340    0.
CTRIA3   3998    1       2124    2340    2123    0.
CTRIA3   3999    1       2117    2344    2116    0.
CTRIA3   4000    1       2343    2116    2344    0.
CTRIA3   4001    1       2344    2342    2343    0.
CTRIA3   4002    1       2116    2343    2115    0.
CTRIA3   4003    1       2141    2334    2142    0.
CTRIA3   4004    1       2145    2350    2146    0.
CTRIA3   4005    1       2348    2146    2350    0.
CTRIA3   4006    1       2350    2349    2348    0.
CTRIA3   4007    1       2346    2348    2349    0.
CTRIA3   4008    1       2349    2345    2346    0.
CTRIA3   4009    1       2146    2348    2147    0.
CTRIA3   4010    1       2347    2147    2348    0.
CTRIA3   4011    1       2348    2346    2347    0.
CTRIA3   4012    1       2147    2347    2148    0.
CTRIA3   4013    1       2131    2353    2143    0.
CTRIA3   4014    1       2351    2143    2353    0.
CTRIA3   4015    1       2353    2352    2351    0.
CTRIA3   4016    1       2349    2351    2352    0.
CTRIA3   4017    1       2352    2345    2349    0.
CTRIA3   4018    1       2143    2351    2144    0.
CTRIA3   4019    1       2350    2144    2351    0.
CTRIA3   4020    1       2351    2349    2350    0.
CTRIA3   4021    1       2144    2350    2145    0.
CTRIA3   4022    1       2120    2356    2133    0.
CTRIA3   4023    1       2354    2133    2356    0.
CTRIA3   4024    1       2356    2355    2354    0.
CTRIA3   4025    1       2352    2354    2355    0.
CTRIA3   4026    1       2355    2345    2352    0.
CTRIA3   4027    1       2133    2354    2132    0.
CTRIA3   4028    1       2353    2132    2354    0.
CTRIA3   4029    1       2354    2352    2353    0.
CTRIA3   4030    1       2132    2353    2131    0.
CTRIA3   4031    1       2123    2359    2122    0.
CTRIA3   4032    1       2357    2122    2359    0.
CTRIA3   4033    1       2359    2358    2357    0.
CTRIA3   4034    1       2355    2357    2358    0.
CTRIA3   4035    1       2358    2345    2355    0.
CTRIA3   4036    1       2122    2357    2121    0.
CTRIA3   4037    1       2356    2121    2357    0.
CTRIA3   4038    1       2357    2355    2356    0.
CTRIA3   4039    1       2121    2356    2120    0.
CTRIA3   4040    1       2138    2362    2137    0.
CTRIA3   4041    1       2360    2137    2362    0.
CTRIA3   4042    1       2362    2361    2360    0.
CTRIA3   4043    1       2358    2360    2361    0.
CTRIA3   4044    1       2361    2345    2358    0.
CTRIA3   4045    1       2137    2360    2136    0.
CTRIA3   4046    1       2359    2136    2360    0.
CTRIA3   4047    1       2360    2358    2359    0.
CTRIA3   4048    1       2136    2359    2123    0.
CTRIA3   4049    1       2148    2347    2149    0.
CTRIA3   4050    1       2363    2149    2347    0.
CTRIA3   4051    1       2347    2346    2363    0.
CTRIA3   4052    1       2361    2363    2346    0.
CTRIA3   4053    1       2346    2345    2361    0.
CTRIA3   4054    1       2149    2363    2150    0.
CTRIA3   4055    1       2362    2150    2363    0.
CTRIA3   4056    1       2363    2361    2362    0.
CTRIA3   4057    1       2150    2362    2138    0.
CTRIA3   4058    1       2184    2364    2185    0.
CTRIA3   4059    1       2182    2365    2183    0.
CTRIA3   4060    1       2184    2183    2365    0.
CTRIA3   4061    1       2365    2364    2184    0.
CTRIA3   4062    1       2128    2368    2135    0.
CTRIA3   4063    1       2366    2135    2368    0.
CTRIA3   4064    1       2368    2367    2366    0.
CTRIA3   4065    1       2365    2366    2367    0.
CTRIA3   4066    1       2367    2364    2365    0.
CTRIA3   4067    1       2135    2366    2134    0.
CTRIA3   4068    1       2182    2134    2366    0.
CTRIA3   4069    1       2366    2365    2182    0.
CTRIA3   4070    1       2134    2182    2174    0.
CTRIA3   4071    1       2131    2371    2130    0.
CTRIA3   4072    1       2369    2130    2371    0.
CTRIA3   4073    1       2371    2370    2369    0.
CTRIA3   4074    1       2367    2369    2370    0.
CTRIA3   4075    1       2370    2364    2367    0.
CTRIA3   4076    1       2130    2369    2129    0.
CTRIA3   4077    1       2368    2129    2369    0.
CTRIA3   4078    1       2369    2367    2368    0.
CTRIA3   4079    1       2129    2368    2128    0.
CTRIA3   4080    1       2145    2374    2144    0.
CTRIA3   4081    1       2372    2144    2374    0.
CTRIA3   4082    1       2374    2373    2372    0.
CTRIA3   4083    1       2370    2372    2373    0.
CTRIA3   4084    1       2373    2364    2370    0.
CTRIA3   4085    1       2144    2372    2143    0.
CTRIA3   4086    1       2371    2143    2372    0.
CTRIA3   4087    1       2372    2370    2371    0.
CTRIA3   4088    1       2143    2371    2131    0.
CTRIA3   4089    1       2375    2175    2186    0.
CTRIA3   4090    1       2186    2185    2375    0.
CTRIA3   4091    1       2373    2375    2185    0.
CTRIA3   4092    1       2185    2364    2373    0.
CTRIA3   4093    1       2175    2375    2151    0.
CTRIA3   4094    1       2374    2151    2375    0.
CTRIA3   4095    1       2375    2373    2374    0.
CTRIA3   4096    1       2151    2374    2145    0.
CTRIA3   4097    1       2154    2380    2155    0.
CTRIA3   4098    1       2378    2155    2380    0.
CTRIA3   4099    1       2380    2379    2378    0.
CTRIA3   4100    1       2376    2378    2379    0.
CTRIA3   4101    1       2155    2378    2156    0.
CTRIA3   4102    1       2377    2156    2378    0.
CTRIA3   4103    1       2378    2376    2377    0.
CTRIA3   4104    1       2156    2377    2157    0.
CTRIA3   4105    1       2141    2383    2152    0.
CTRIA3   4106    1       2381    2152    2383    0.
CTRIA3   4107    1       2383    2382    2381    0.
CTRIA3   4108    1       2379    2381    2382    0.
CTRIA3   4109    1       2152    2381    2153    0.
CTRIA3   4110    1       2380    2153    2381    0.
CTRIA3   4111    1       2381    2379    2380    0.
CTRIA3   4112    1       2153    2380    2154    0.
CTRIA3   4113    1       2142    2383    2141    0.
CTRIA3   4114    1       2157    2377    2158    0.
CTRIA3   4115    1       2176    2389    2192    0.
CTRIA3   4116    1       2387    2192    2389    0.
CTRIA3   4117    1       2389    2388    2387    0.
CTRIA3   4118    1       2385    2387    2388    0.
CTRIA3   4119    1       2388    2384    2385    0.
CTRIA3   4120    1       2192    2387    2193    0.
CTRIA3   4121    1       2387    2385    2386    0.
CTRIA3   4122    1       2148    2392    2159    0.
CTRIA3   4123    1       2390    2159    2392    0.
CTRIA3   4124    1       2392    2391    2390    0.
CTRIA3   4125    1       2388    2390    2391    0.
CTRIA3   4126    1       2391    2384    2388    0.
CTRIA3   4127    1       2159    2390    2160    0.
CTRIA3   4128    1       2389    2160    2390    0.
CTRIA3   4129    1       2390    2388    2389    0.
CTRIA3   4130    1       2160    2389    2176    0.
CTRIA3   4131    1       2138    2395    2150    0.
CTRIA3   4132    1       2393    2150    2395    0.
CTRIA3   4133    1       2395    2394    2393    0.
CTRIA3   4134    1       2391    2393    2394    0.
CTRIA3   4135    1       2394    2384    2391    0.
CTRIA3   4136    1       2150    2393    2149    0.
CTRIA3   4137    1       2392    2149    2393    0.
CTRIA3   4138    1       2393    2391    2392    0.
CTRIA3   4139    1       2149    2392    2148    0.
CTRIA3   4140    1       2141    2398    2140    0.
CTRIA3   4141    1       2396    2140    2398    0.
CTRIA3   4142    1       2398    2397    2396    0.
CTRIA3   4143    1       2394    2396    2397    0.
CTRIA3   4144    1       2397    2384    2394    0.
CTRIA3   4145    1       2140    2396    2139    0.
CTRIA3   4146    1       2395    2139    2396    0.
CTRIA3   4147    1       2396    2394    2395    0.
CTRIA3   4148    1       2139    2395    2138    0.
CTRIA3   4149    1       2154    2401    2153    0.
CTRIA3   4150    1       2399    2153    2401    0.
CTRIA3   4151    1       2401    2400    2399    0.
CTRIA3   4152    1       2397    2399    2400    0.
CTRIA3   4153    1       2400    2384    2397    0.
CTRIA3   4154    1       2153    2399    2152    0.
CTRIA3   4155    1       2398    2152    2399    0.
CTRIA3   4156    1       2399    2397    2398    0.
CTRIA3   4157    1       2152    2398    2141    0.
CTRIA3   4158    1       2402    2161    2386    0.
CTRIA3   4159    1       2386    2385    2402    0.
CTRIA3   4160    1       2400    2402    2385    0.
CTRIA3   4161    1       2385    2384    2400    0.
CTRIA3   4162    1       2161    2402    2162    0.
CTRIA3   4163    1       2401    2162    2402    0.
CTRIA3   4164    1       2402    2400    2401    0.
CTRIA3   4165    1       2162    2401    2154    0.
CTRIA3   4166    1       2145    2403    2151    0.
CTRIA3   4167    1       2187    2151    2403    0.
CTRIA3   4168    1       2403    2188    2187    0.
CTRIA3   4169    1       2151    2187    2175    0.
CTRIA3   4170    1       2148    2406    2147    0.
CTRIA3   4171    1       2404    2147    2406    0.
CTRIA3   4172    1       2406    2405    2404    0.
CTRIA3   4173    1       2188    2404    2405    0.
CTRIA3   4174    1       2405    2189    2188    0.
CTRIA3   4175    1       2147    2404    2146    0.
CTRIA3   4176    1       2403    2146    2404    0.
CTRIA3   4177    1       2404    2188    2403    0.
CTRIA3   4178    1       2146    2403    2145    0.
CTRIA3   4179    1       2176    2191    2160    0.
CTRIA3   4180    1       2407    2160    2191    0.
CTRIA3   4181    1       2191    2190    2407    0.
CTRIA3   4182    1       2405    2407    2190    0.
CTRIA3   4183    1       2190    2189    2405    0.
CTRIA3   4184    1       2160    2407    2159    0.
CTRIA3   4185    1       2406    2159    2407    0.
CTRIA3   4186    1       2407    2405    2406    0.
CTRIA3   4187    1       2159    2406    2148    0.
CTRIA3   4188    1       120     2209    171     0.
CTRIA3   4189    1       120     2173    2209    0.
CTRIA3   4190    1       1748    2216    2168    0.
CTRIA3   4191    1       1748    1782    2216    0.
CTRIA3   4192    1       2328    2174    2181    0.
CTRIA3   4193    1       2180    2328    2181    0.
CTRIA3   4194    1       2387    2386    2193    0.
CTRIA3   4195    1       2177    2193    2386    0.
CTRIA3   4196    1       2161    2177    2386    0.
CTRIA3   4197    1       2408    1756    2205    0.
CTRIA3   4198    1       1756    2408    1880    0.
CTRIA3   4199    1       2205    2409    2408    0.
CTRIA3   4200    1       2179    2164    2409    0.
CTRIA3   4201    1       2203    2202    2410    0.
CTRIA3   4202    1       2201    2410    2202    0.
CTRIA3   4203    1       2163    2164    2411    0.
CTRIA3   4204    1       2203    2411    2164    0.
CTRIA3   4205    1       2411    2203    2410    0.
CTRIA3   4206    1       2164    2179    2203    0.
CTRIA3   4207    1       2157    2158    2413    0.
CTRIA3   4208    1       2414    2199    2178    0.
CTRIA3   4209    1       2199    2414    2200    0.
CTRIA3   4210    1       2412    2200    2414    0.
CTRIA3   4211    1       2178    2165    2414    0.
CTRIA3   4212    1       2413    2414    2165    0.
CTRIA3   4213    1       2414    2413    2412    0.
CTRIA3   4214    1       2165    2157    2413    0.
CTRIA3   4215    1       2157    2165    2415    0.
CTRIA3   4216    1       2198    2415    2165    0.
CTRIA3   4217    1       2415    2198    2197    0.
CTRIA3   4218    1       2165    2178    2198    0.
CTRIA3   4219    1       2154    2155    2418    0.
CTRIA3   4220    1       2416    2418    2155    0.
CTRIA3   4221    1       2418    2416    2417    0.
CTRIA3   4222    1       2197    2417    2416    0.
CTRIA3   4223    1       2417    2197    2196    0.
CTRIA3   4224    1       2155    2156    2416    0.
CTRIA3   4225    1       2415    2416    2156    0.
CTRIA3   4226    1       2416    2415    2197    0.
CTRIA3   4227    1       2156    2157    2415    0.
CTRIA3   4228    1       2177    2161    2194    0.
CTRIA3   4229    1       2419    2194    2161    0.
CTRIA3   4230    1       2194    2419    2195    0.
CTRIA3   4231    1       2417    2195    2419    0.
CTRIA3   4232    1       2195    2417    2196    0.
CTRIA3   4233    1       2161    2162    2419    0.
CTRIA3   4234    1       2418    2419    2162    0.
CTRIA3   4235    1       2419    2418    2417    0.
CTRIA3   4236    1       2162    2154    2418    0.
CTRIA3   4237    1       2409    2204    2179    0.
CTRIA3   4238    1       2205    2204    2409    0.
CQUAD4   4239    1       2205    1756    2049    2420    0.
CQUAD4   4240    1       160     2180    2421    445     0.
CQUAD4   4241    1       2180    2181    2422    2421    0.
CQUAD4   4242    1       2181    2174    2423    2422    0.
CQUAD4   4243    1       2174    2182    2424    2423    0.
CQUAD4   4244    1       2182    2183    2425    2424    0.
CQUAD4   4245    1       2183    2184    2426    2425    0.
CQUAD4   4246    1       2184    2185    2427    2426    0.
CQUAD4   4247    1       2185    2186    2428    2427    0.
CQUAD4   4248    1       2186    2175    2429    2428    0.
CQUAD4   4249    1       2175    2187    2430    2429    0.
CQUAD4   4250    1       2187    2188    2431    2430    0.
CQUAD4   4251    1       2188    2189    2432    2431    0.
CQUAD4   4252    1       2189    2190    2433    2432    0.
CQUAD4   4253    1       2190    2191    2434    2433    0.
CQUAD4   4254    1       2191    2176    2435    2434    0.
CQUAD4   4255    1       2176    2192    2436    2435    0.
CQUAD4   4256    1       2192    2193    2437    2436    0.
CQUAD4   4257    1       2193    2177    2438    2437    0.
CQUAD4   4258    1       2177    2194    2439    2438    0.
CQUAD4   4259    1       2194    2195    2440    2439    0.
CQUAD4   4260    1       2195    2196    2441    2440    0.
CQUAD4   4261    1       2196    2197    2442    2441    0.
CQUAD4   4262    1       2197    2198    2443    2442    0.
CQUAD4   4263    1       2198    2178    2444    2443    0.
CQUAD4   4264    1       2178    2199    2445    2444    0.
CQUAD4   4265    1       2199    2200    2446    2445    0.
CQUAD4   4266    1       2200    2201    2447    2446    0.
CQUAD4   4267    1       2201    2202    2448    2447    0.
CQUAD4   4268    1       2202    2203    2449    2448    0.
CQUAD4   4269    1       2203    2179    2450    2449    0.
CQUAD4   4270    1       2179    2204    2451    2450    0.
CQUAD4   4271    1       2204    2205    2420    2451    0.
CTRIA3   4272    1       256     2452    253     0.
CTRIA3   4273    1       257     44      2453    0.
CTRIA3   4274    1       2453    256     257     0.
CTRIA3   4275    1       253     2452    260     0.
CTRIA3   4276    1       266     2454    263     0.
CTRIA3   4277    1       267     51      2455    0.
CTRIA3   4278    1       2455    266     267     0.
CTRIA3   4279    1       2456    44      269     0.
CTRIA3   4280    1       269     268     2456    0.
CTRIA3   4281    1       263     2454    268     0.
CTRIA3   4282    1       134     2457    271     0.
CTRIA3   4283    1       2458    51      274     0.
CTRIA3   4284    1       274     273     2458    0.
CTRIA3   4285    1       271     2457    273     0.
CTRIA3   4286    1       495     618     2459    0.
CTRIA3   4287    1       2459    618     2460    0.
CTRIA3   4288    1       634     2460    618     0.
CTRIA3   4289    1       2460    634     496     0.
CTRIA3   4290    1       2463    2511    2464    0.
CTRIA3   4291    1       2509    2464    2511    0.
CTRIA3   4292    1       2511    2510    2509    0.
CTRIA3   4293    1       2507    2509    2510    0.
CTRIA3   4294    1       2510    2506    2507    0.
CTRIA3   4295    1       2464    2509    2465    0.
CTRIA3   4296    1       2508    2465    2509    0.
CTRIA3   4297    1       2509    2507    2508    0.
CTRIA3   4298    1       2465    2508    2466    0.
CTRIA3   4299    1       2459    2514    2461    0.
CTRIA3   4300    1       2512    2461    2514    0.
CTRIA3   4301    1       2514    2513    2512    0.
CTRIA3   4302    1       2510    2512    2513    0.
CTRIA3   4303    1       2513    2506    2510    0.
CTRIA3   4304    1       2461    2512    2462    0.
CTRIA3   4305    1       2511    2462    2512    0.
CTRIA3   4306    1       2512    2510    2511    0.
CTRIA3   4307    1       2462    2511    2463    0.
CTRIA3   4308    1       2515    496     668     0.
CTRIA3   4309    1       668     2516    2515    0.
CTRIA3   4310    1       2513    2515    2516    0.
CTRIA3   4311    1       2516    2506    2513    0.
CTRIA3   4312    1       496     2515    2460    0.
CTRIA3   4313    1       2514    2460    2515    0.
CTRIA3   4314    1       2515    2513    2514    0.
CTRIA3   4315    1       2460    2514    2459    0.
CTRIA3   4316    1       670     2517    669     0.
CTRIA3   4317    1       2516    669     2517    0.
CTRIA3   4318    1       2517    2506    2516    0.
CTRIA3   4319    1       669     2516    668     0.
CTRIA3   4320    1       2469    2520    2470    0.
CTRIA3   4321    1       2518    2470    2520    0.
CTRIA3   4322    1       2520    2519    2518    0.
CTRIA3   4323    1       2517    2518    2519    0.
CTRIA3   4324    1       2519    2506    2517    0.
CTRIA3   4325    1       2470    2518    170     0.
CTRIA3   4326    1       670     170     2518    0.
CTRIA3   4327    1       2518    2517    670     0.
CTRIA3   4328    1       2466    2508    2467    0.
CTRIA3   4329    1       2521    2467    2508    0.
CTRIA3   4330    1       2508    2507    2521    0.
CTRIA3   4331    1       2519    2521    2507    0.
CTRIA3   4332    1       2507    2506    2519    0.
CTRIA3   4333    1       2467    2521    2468    0.
CTRIA3   4334    1       2520    2468    2521    0.
CTRIA3   4335    1       2521    2519    2520    0.
CTRIA3   4336    1       2468    2520    2469    0.
CTRIA3   4337    1       516     673     2471    0.
CTRIA3   4338    1       2459    685     495     0.
CTRIA3   4339    1       2463    2523    2462    0.
CTRIA3   4340    1       2522    2462    2523    0.
CTRIA3   4341    1       2523    686     2522    0.
CTRIA3   4342    1       684     2522    686     0.
CTRIA3   4343    1       2462    2522    2461    0.
CTRIA3   4344    1       685     2461    2522    0.
CTRIA3   4345    1       2522    684     685     0.
CTRIA3   4346    1       2461    685     2459    0.
CTRIA3   4347    1       2471    673     2472    0.
CTRIA3   4348    1       2524    2472    673     0.
CTRIA3   4349    1       673     672     2524    0.
CTRIA3   4350    1       686     2524    672     0.
CTRIA3   4351    1       2472    2524    2473    0.
CTRIA3   4352    1       2523    2473    2524    0.
CTRIA3   4353    1       2524    686     2523    0.
CTRIA3   4354    1       2473    2523    2463    0.
CTRIA3   4355    1       2476    2530    2477    0.
CTRIA3   4356    1       2528    2477    2530    0.
CTRIA3   4357    1       2530    2529    2528    0.
CTRIA3   4358    1       2526    2528    2529    0.
CTRIA3   4359    1       2529    2525    2526    0.
CTRIA3   4360    1       2477    2528    2478    0.
CTRIA3   4361    1       2527    2478    2528    0.
CTRIA3   4362    1       2528    2526    2527    0.
CTRIA3   4363    1       2478    2527    2479    0.
CTRIA3   4364    1       2482    2542    2483    0.
CTRIA3   4365    1       2466    2533    2474    0.
CTRIA3   4366    1       2531    2474    2533    0.
CTRIA3   4367    1       2533    2532    2531    0.
CTRIA3   4368    1       2529    2531    2532    0.
CTRIA3   4369    1       2532    2525    2529    0.
CTRIA3   4370    1       2530    2475    2531    0.
CTRIA3   4371    1       2531    2529    2530    0.
CTRIA3   4372    1       2475    2530    2476    0.
CTRIA3   4373    1       2469    2536    2468    0.
CTRIA3   4374    1       2534    2468    2536    0.
CTRIA3   4375    1       2536    2535    2534    0.
CTRIA3   4376    1       2532    2534    2535    0.
CTRIA3   4377    1       2535    2525    2532    0.
CTRIA3   4378    1       2468    2534    2467    0.
CTRIA3   4379    1       2533    2467    2534    0.
CTRIA3   4380    1       2534    2532    2533    0.
CTRIA3   4381    1       2467    2533    2466    0.
CTRIA3   4382    1       2540    2483    2542    0.
CTRIA3   4383    1       2542    2541    2540    0.
CTRIA3   4384    1       2538    2540    2541    0.
CTRIA3   4385    1       2541    2537    2538    0.
CTRIA3   4386    1       2483    2540    2484    0.
CTRIA3   4387    1       2539    2484    2540    0.
CTRIA3   4388    1       2540    2538    2539    0.
CTRIA3   4389    1       2484    2539    2485    0.
CTRIA3   4390    1       2471    2545    2480    0.
CTRIA3   4391    1       2543    2480    2545    0.
CTRIA3   4392    1       2545    2544    2543    0.
CTRIA3   4393    1       2541    2543    2544    0.
CTRIA3   4394    1       2544    2537    2541    0.
CTRIA3   4395    1       2480    2543    2481    0.
CTRIA3   4396    1       2542    2481    2543    0.
CTRIA3   4397    1       2543    2541    2542    0.
CTRIA3   4398    1       2481    2542    2482    0.
CTRIA3   4399    1       2463    2548    2473    0.
CTRIA3   4400    1       2546    2473    2548    0.
CTRIA3   4401    1       2548    2547    2546    0.
CTRIA3   4402    1       2544    2546    2547    0.
CTRIA3   4403    1       2547    2537    2544    0.
CTRIA3   4404    1       2473    2546    2472    0.
CTRIA3   4405    1       2545    2472    2546    0.
CTRIA3   4406    1       2546    2544    2545    0.
CTRIA3   4407    1       2472    2545    2471    0.
CTRIA3   4408    1       2466    2551    2465    0.
CTRIA3   4409    1       2549    2465    2551    0.
CTRIA3   4410    1       2551    2550    2549    0.
CTRIA3   4411    1       2547    2549    2550    0.
CTRIA3   4412    1       2550    2537    2547    0.
CTRIA3   4413    1       2465    2549    2464    0.
CTRIA3   4414    1       2548    2464    2549    0.
CTRIA3   4415    1       2549    2547    2548    0.
CTRIA3   4416    1       2464    2548    2463    0.
CTRIA3   4417    1       2476    2554    2475    0.
CTRIA3   4418    1       2552    2475    2554    0.
CTRIA3   4419    1       2554    2553    2552    0.
CTRIA3   4420    1       2550    2552    2553    0.
CTRIA3   4421    1       2553    2537    2550    0.
CTRIA3   4422    1       2551    2474    2552    0.
CTRIA3   4423    1       2552    2550    2551    0.
CTRIA3   4424    1       2474    2551    2466    0.
CTRIA3   4425    1       2485    2539    2486    0.
CTRIA3   4426    1       2555    2486    2539    0.
CTRIA3   4427    1       2539    2538    2555    0.
CTRIA3   4428    1       2553    2555    2538    0.
CTRIA3   4429    1       2538    2537    2553    0.
CTRIA3   4430    1       2554    2487    2555    0.
CTRIA3   4431    1       2555    2553    2554    0.
CTRIA3   4432    1       2487    2554    2476    0.
CTRIA3   4433    1       2471    748     516     0.
CTRIA3   4434    1       2482    2557    2481    0.
CTRIA3   4435    1       2556    2481    2557    0.
CTRIA3   4436    1       2557    749     2556    0.
CTRIA3   4437    1       747     2556    749     0.
CTRIA3   4438    1       2481    2556    2480    0.
CTRIA3   4439    1       748     2480    2556    0.
CTRIA3   4440    1       2556    747     748     0.
CTRIA3   4441    1       2480    748     2471    0.
CTRIA3   4442    1       2488    2558    2489    0.
CTRIA3   4443    1       2557    2489    2558    0.
CTRIA3   4444    1       2558    749     2557    0.
CTRIA3   4445    1       2489    2557    2482    0.
CTRIA3   4446    1       2492    2564    2493    0.
CTRIA3   4447    1       2562    2493    2564    0.
CTRIA3   4448    1       2564    2563    2562    0.
CTRIA3   4449    1       2560    2562    2563    0.
CTRIA3   4450    1       2563    2559    2560    0.
CTRIA3   4451    1       2493    2562    2494    0.
CTRIA3   4452    1       2561    2494    2562    0.
CTRIA3   4453    1       2562    2560    2561    0.
CTRIA3   4454    1       2494    2561    2495    0.
CTRIA3   4455    1       2485    2567    2490    0.
CTRIA3   4456    1       2565    2490    2567    0.
CTRIA3   4457    1       2567    2566    2565    0.
CTRIA3   4458    1       2563    2565    2566    0.
CTRIA3   4459    1       2566    2559    2563    0.
CTRIA3   4460    1       2490    2565    2491    0.
CTRIA3   4461    1       2564    2491    2565    0.
CTRIA3   4462    1       2565    2563    2564    0.
CTRIA3   4463    1       2491    2564    2492    0.
CTRIA3   4464    1       2476    2570    2487    0.
CTRIA3   4465    1       2568    2487    2570    0.
CTRIA3   4466    1       2570    2569    2568    0.
CTRIA3   4467    1       2566    2568    2569    0.
CTRIA3   4468    1       2569    2559    2566    0.
CTRIA3   4469    1       2567    2486    2568    0.
CTRIA3   4470    1       2568    2566    2567    0.
CTRIA3   4471    1       2486    2567    2485    0.
CTRIA3   4472    1       2479    2573    2478    0.
CTRIA3   4473    1       2571    2478    2573    0.
CTRIA3   4474    1       2573    2572    2571    0.
CTRIA3   4475    1       2569    2571    2572    0.
CTRIA3   4476    1       2572    2559    2569    0.
CTRIA3   4477    1       2478    2571    2477    0.
CTRIA3   4478    1       2570    2477    2571    0.
CTRIA3   4479    1       2571    2569    2570    0.
CTRIA3   4480    1       2477    2570    2476    0.
CTRIA3   4481    1       2498    2576    2499    0.
CTRIA3   4482    1       2574    2499    2576    0.
CTRIA3   4483    1       2576    2575    2574    0.
CTRIA3   4484    1       2572    2574    2575    0.
CTRIA3   4485    1       2575    2559    2572    0.
CTRIA3   4486    1       2499    2574    2500    0.
CTRIA3   4487    1       2573    2500    2574    0.
CTRIA3   4488    1       2574    2572    2573    0.
CTRIA3   4489    1       2500    2573    2479    0.
CTRIA3   4490    1       2495    2561    2496    0.
CTRIA3   4491    1       2577    2496    2561    0.
CTRIA3   4492    1       2561    2560    2577    0.
CTRIA3   4493    1       2575    2577    2560    0.
CTRIA3   4494    1       2560    2559    2575    0.
CTRIA3   4495    1       2576    2497    2577    0.
CTRIA3   4496    1       2577    2575    2576    0.
CTRIA3   4497    1       2497    2576    2498    0.
CTRIA3   4498    1       2581    550     2583    0.
CTRIA3   4499    1       2583    2582    2581    0.
CTRIA3   4500    1       2579    2581    2582    0.
CTRIA3   4501    1       2582    2578    2579    0.
CTRIA3   4502    1       550     2581    551     0.
CTRIA3   4503    1       2580    551     2581    0.
CTRIA3   4504    1       2581    2579    2580    0.
CTRIA3   4505    1       551     2580    552     0.
CTRIA3   4506    1       2586    2585    2584    0.
CTRIA3   4507    1       2582    2584    2585    0.
CTRIA3   4508    1       2585    2578    2582    0.
CTRIA3   4509    1       2584    2582    2583    0.
CTRIA3   4510    1       2482    2589    2489    0.
CTRIA3   4511    1       2587    2489    2589    0.
CTRIA3   4512    1       2589    2588    2587    0.
CTRIA3   4513    1       2585    2587    2588    0.
CTRIA3   4514    1       2588    2578    2585    0.
CTRIA3   4515    1       2489    2587    2488    0.
CTRIA3   4516    1       2586    2488    2587    0.
CTRIA3   4517    1       2587    2585    2586    0.
CTRIA3   4518    1       2485    2592    2484    0.
CTRIA3   4519    1       2590    2484    2592    0.
CTRIA3   4520    1       2592    2591    2590    0.
CTRIA3   4521    1       2588    2590    2591    0.
CTRIA3   4522    1       2591    2578    2588    0.
CTRIA3   4523    1       2484    2590    2483    0.
CTRIA3   4524    1       2589    2483    2590    0.
CTRIA3   4525    1       2590    2588    2589    0.
CTRIA3   4526    1       2483    2589    2482    0.
CTRIA3   4527    1       2492    2595    2491    0.
CTRIA3   4528    1       2593    2491    2595    0.
CTRIA3   4529    1       2595    2594    2593    0.
CTRIA3   4530    1       2591    2593    2594    0.
CTRIA3   4531    1       2594    2578    2591    0.
CTRIA3   4532    1       2491    2593    2490    0.
CTRIA3   4533    1       2592    2490    2593    0.
CTRIA3   4534    1       2593    2591    2592    0.
CTRIA3   4535    1       2490    2592    2485    0.
CTRIA3   4536    1       552     2580    2501    0.
CTRIA3   4537    1       2596    2501    2580    0.
CTRIA3   4538    1       2580    2579    2596    0.
CTRIA3   4539    1       2594    2596    2579    0.
CTRIA3   4540    1       2579    2578    2594    0.
CTRIA3   4541    1       2501    2596    2502    0.
CTRIA3   4542    1       2595    2502    2596    0.
CTRIA3   4543    1       2596    2594    2595    0.
CTRIA3   4544    1       2502    2595    2492    0.
CTRIA3   4545    1       2597    134     598     0.
CTRIA3   4546    1       134     2597    2457    0.
CTRIA3   4547    1       598     2598    2597    0.
CTRIA3   4548    1       2495    2496    2603    0.
CTRIA3   4549    1       2601    2603    2496    0.
CTRIA3   4550    1       2603    2601    2602    0.
CTRIA3   4551    1       2599    2602    2601    0.
CTRIA3   4552    1       2602    2599    2457    0.
CTRIA3   4553    1       2600    2601    2497    0.
CTRIA3   4554    1       2601    2600    2599    0.
CTRIA3   4555    1       2497    2498    2600    0.
CTRIA3   4556    1       572     2504    2598    0.
CTRIA3   4557    1       2604    2598    2504    0.
CTRIA3   4558    1       2598    2604    2597    0.
CTRIA3   4559    1       2602    2597    2604    0.
CTRIA3   4560    1       2597    2602    2457    0.
CTRIA3   4561    1       2504    2503    2604    0.
CTRIA3   4562    1       2603    2604    2503    0.
CTRIA3   4563    1       2604    2603    2602    0.
CTRIA3   4564    1       2503    2495    2603    0.
CTRIA3   4565    1       2495    2503    2607    0.
CTRIA3   4566    1       2605    2607    2503    0.
CTRIA3   4567    1       2607    2605    2606    0.
CTRIA3   4568    1       805     2606    2605    0.
CTRIA3   4569    1       2606    805     804     0.
CTRIA3   4570    1       2503    2504    2605    0.
CTRIA3   4571    1       597     2605    2504    0.
CTRIA3   4572    1       2605    597     805     0.
CTRIA3   4573    1       2504    572     597     0.
CTRIA3   4574    1       2492    2493    2610    0.
CTRIA3   4575    1       2608    2610    2493    0.
CTRIA3   4576    1       2610    2608    2609    0.
CTRIA3   4577    1       2606    2609    2608    0.
CTRIA3   4578    1       2609    2606    804     0.
CTRIA3   4579    1       2493    2494    2608    0.
CTRIA3   4580    1       2607    2608    2494    0.
CTRIA3   4581    1       2608    2607    2606    0.
CTRIA3   4582    1       2494    2495    2607    0.
CTRIA3   4583    1       552     2501    807     0.
CTRIA3   4584    1       2611    807     2501    0.
CTRIA3   4585    1       807     2611    806     0.
CTRIA3   4586    1       2609    806     2611    0.
CTRIA3   4587    1       806     2609    804     0.
CTRIA3   4588    1       2501    2502    2611    0.
CTRIA3   4589    1       2610    2611    2502    0.
CTRIA3   4590    1       2611    2610    2609    0.
CTRIA3   4591    1       2502    2492    2610    0.
CTRIA3   4592    1       2598    2505    572     0.
CTRIA3   4593    1       598     2505    2598    0.
CTRIA3   4594    1       2614    2623    2615    0.
CTRIA3   4595    1       202     2615    2623    0.
CTRIA3   4596    1       2623    203     202     0.
CTRIA3   4597    1       2615    202     21      0.
CTRIA3   4598    1       2469    2625    2612    0.
CTRIA3   4599    1       2624    2612    2625    0.
CTRIA3   4600    1       2625    204     2624    0.
CTRIA3   4601    1       203     2624    204     0.
CTRIA3   4602    1       2612    2624    2613    0.
CTRIA3   4603    1       2623    2613    2624    0.
CTRIA3   4604    1       2624    203     2623    0.
CTRIA3   4605    1       2613    2623    2614    0.
CTRIA3   4606    1       170     205     2470    0.
CTRIA3   4607    1       2625    2470    205     0.
CTRIA3   4608    1       205     204     2625    0.
CTRIA3   4609    1       2470    2625    2469    0.
CTRIA3   4610    1       2479    2527    2616    0.
CTRIA3   4611    1       2628    2616    2527    0.
CTRIA3   4612    1       2527    2526    2628    0.
CTRIA3   4613    1       2626    2628    2526    0.
CTRIA3   4614    1       2526    2525    2626    0.
CTRIA3   4615    1       2616    2628    2617    0.
CTRIA3   4616    1       2627    2617    2628    0.
CTRIA3   4617    1       2628    2626    2627    0.
CTRIA3   4618    1       2617    2627    2618    0.
CTRIA3   4619    1       2614    2631    2613    0.
CTRIA3   4620    1       2629    2613    2631    0.
CTRIA3   4621    1       2631    2630    2629    0.
CTRIA3   4622    1       2535    2629    2630    0.
CTRIA3   4623    1       2630    2525    2535    0.
CTRIA3   4624    1       2613    2629    2612    0.
CTRIA3   4625    1       2536    2612    2629    0.
CTRIA3   4626    1       2629    2535    2536    0.
CTRIA3   4627    1       2612    2536    2469    0.
CTRIA3   4628    1       2618    2627    2619    0.
CTRIA3   4629    1       2632    2619    2627    0.
CTRIA3   4630    1       2627    2626    2632    0.
CTRIA3   4631    1       2630    2632    2626    0.
CTRIA3   4632    1       2626    2525    2630    0.
CTRIA3   4633    1       2631    2620    2632    0.
CTRIA3   4634    1       2632    2630    2631    0.
CTRIA3   4635    1       2620    2631    2614    0.
CTRIA3   4636    1       2618    2634    2621    0.
CTRIA3   4637    1       2453    2621    2634    0.
CTRIA3   4638    1       2634    2633    2453    0.
CTRIA3   4639    1       256     2453    2633    0.
CTRIA3   4640    1       2633    2452    256     0.
CTRIA3   4641    1       2614    2637    2620    0.
CTRIA3   4642    1       2635    2620    2637    0.
CTRIA3   4643    1       2637    2636    2635    0.
CTRIA3   4644    1       2633    2635    2636    0.
CTRIA3   4645    1       2636    2452    2633    0.
CTRIA3   4646    1       2634    2619    2635    0.
CTRIA3   4647    1       2635    2633    2634    0.
CTRIA3   4648    1       2619    2634    2618    0.
CTRIA3   4649    1       2638    21      258     0.
CTRIA3   4650    1       258     2639    2638    0.
CTRIA3   4651    1       2636    2638    2639    0.
CTRIA3   4652    1       2639    2452    2636    0.
CTRIA3   4653    1       21      2638    2615    0.
CTRIA3   4654    1       2637    2615    2638    0.
CTRIA3   4655    1       2638    2636    2637    0.
CTRIA3   4656    1       2615    2637    2614    0.
CTRIA3   4657    1       2639    259     260     0.
CTRIA3   4658    1       260     2452    2639    0.
CTRIA3   4659    1       259     2639    258     0.
CTRIA3   4660    1       2498    2641    2622    0.
CTRIA3   4661    1       2455    2622    2641    0.
CTRIA3   4662    1       2641    2640    2455    0.
CTRIA3   4663    1       266     2455    2640    0.
CTRIA3   4664    1       2640    2454    266     0.
CTRIA3   4665    1       2479    2644    2500    0.
CTRIA3   4666    1       2642    2500    2644    0.
CTRIA3   4667    1       2644    2643    2642    0.
CTRIA3   4668    1       2640    2642    2643    0.
CTRIA3   4669    1       2643    2454    2640    0.
CTRIA3   4670    1       2500    2642    2499    0.
CTRIA3   4671    1       2641    2499    2642    0.
CTRIA3   4672    1       2642    2640    2641    0.
CTRIA3   4673    1       2499    2641    2498    0.
CTRIA3   4674    1       2618    2647    2617    0.
CTRIA3   4675    1       2645    2617    2647    0.
CTRIA3   4676    1       2647    2646    2645    0.
CTRIA3   4677    1       2643    2645    2646    0.
CTRIA3   4678    1       2646    2454    2643    0.
CTRIA3   4679    1       2617    2645    2616    0.
CTRIA3   4680    1       2644    2616    2645    0.
CTRIA3   4681    1       2645    2643    2644    0.
CTRIA3   4682    1       2616    2644    2479    0.
CTRIA3   4683    1       2646    2456    268     0.
CTRIA3   4684    1       268     2454    2646    0.
CTRIA3   4685    1       2647    2621    2456    0.
CTRIA3   4686    1       2456    2646    2647    0.
CTRIA3   4687    1       2621    2647    2618    0.
CTRIA3   4688    1       2599    2458    273     0.
CTRIA3   4689    1       273     2457    2599    0.
CTRIA3   4690    1       2600    2622    2458    0.
CTRIA3   4691    1       2458    2599    2600    0.
CTRIA3   4692    1       2622    2600    2498    0.
CTRIA3   4693    1       539     736     2648    0.
CTRIA3   4694    1       2648    736     2488    0.
CTRIA3   4695    1       2558    2488    736     0.
CTRIA3   4696    1       736     735     2558    0.
CTRIA3   4697    1       749     2558    735     0.
CTRIA3   4698    1       549     2583    550     0.
CTRIA3   4699    1       2648    2586    2649    0.
CTRIA3   4700    1       2584    2649    2586    0.
CTRIA3   4701    1       2649    2584    2650    0.
CTRIA3   4702    1       2583    2650    2584    0.
CTRIA3   4703    1       2650    2583    549     0.
CTRIA3   4704    1       2488    2586    2648    0.
CTRIA3   4705    1       2648    795     539     0.
CTRIA3   4706    1       549     797     2650    0.
CTRIA3   4707    1       2651    2650    797     0.
CTRIA3   4708    1       797     796     2651    0.
CTRIA3   4709    1       794     2651    796     0.
CTRIA3   4710    1       2650    2651    2649    0.
CTRIA3   4711    1       795     2649    2651    0.
CTRIA3   4712    1       2651    794     795     0.
CTRIA3   4713    1       2649    795     2648    0.
CQUAD4   4714    1       572     2505    2652    845     0.
CQUAD4   4715    1       2505    598     814     2652    0.
CTRIA3   4716    1       2653    996     846     0.
CTRIA3   4717    1       2657    2669    2658    0.
CTRIA3   4718    1       2667    2658    2669    0.
CTRIA3   4719    1       2669    2668    2667    0.
CTRIA3   4720    1       2666    2667    2668    0.
CTRIA3   4721    1       2668    2665    2666    0.
CTRIA3   4722    1       2658    2667    864     0.
CTRIA3   4723    1       1025    864     2667    0.
CTRIA3   4724    1       2667    2666    1025    0.
CTRIA3   4725    1       2654    2672    2655    0.
CTRIA3   4726    1       2670    2655    2672    0.
CTRIA3   4727    1       2672    2671    2670    0.
CTRIA3   4728    1       2668    2670    2671    0.
CTRIA3   4729    1       2671    2665    2668    0.
CTRIA3   4730    1       2655    2670    2656    0.
CTRIA3   4731    1       2669    2656    2670    0.
CTRIA3   4732    1       2670    2668    2669    0.
CTRIA3   4733    1       2656    2669    2657    0.
CTRIA3   4734    1       2653    2675    2663    0.
CTRIA3   4735    1       2673    2663    2675    0.
CTRIA3   4736    1       2675    2674    2673    0.
CTRIA3   4737    1       2671    2673    2674    0.
CTRIA3   4738    1       2674    2665    2671    0.
CTRIA3   4739    1       2663    2673    2664    0.
CTRIA3   4740    1       2672    2664    2673    0.
CTRIA3   4741    1       2673    2671    2672    0.
CTRIA3   4742    1       2664    2672    2654    0.
CTRIA3   4743    1       2676    847     1026    0.
CTRIA3   4744    1       1026    2677    2676    0.
CTRIA3   4745    1       2674    2676    2677    0.
CTRIA3   4746    1       2677    2665    2674    0.
CTRIA3   4747    1       847     2676    846     0.
CTRIA3   4748    1       2675    846     2676    0.
CTRIA3   4749    1       2676    2674    2675    0.
CTRIA3   4750    1       846     2675    2653    0.
CTRIA3   4751    1       2678    857     1027    0.
CTRIA3   4752    1       1027    2679    2678    0.
CTRIA3   4753    1       2677    2678    2679    0.
CTRIA3   4754    1       2679    2665    2677    0.
CTRIA3   4755    1       857     2678    856     0.
CTRIA3   4756    1       1026    856     2678    0.
CTRIA3   4757    1       2678    2677    1026    0.
CTRIA3   4758    1       1025    2666    1028    0.
CTRIA3   4759    1       2679    1028    2666    0.
CTRIA3   4760    1       2666    2665    2679    0.
CTRIA3   4761    1       1028    2679    1027    0.
CTRIA3   4762    1       2657    2683    2656    0.
CTRIA3   4763    1       2682    2656    2683    0.
CTRIA3   4764    1       2656    2682    2655    0.
CTRIA3   4765    1       2681    2655    2682    0.
CTRIA3   4766    1       2682    2680    2681    0.
CTRIA3   4767    1       2655    2681    2654    0.
CTRIA3   4768    1       864     1076    2658    0.
CTRIA3   4769    1       2684    2658    1076    0.
CTRIA3   4770    1       2658    2684    2657    0.
CTRIA3   4771    1       965     2685    1086    0.
CTRIA3   4772    1       2660    2690    2659    0.
CTRIA3   4773    1       2688    2659    2690    0.
CTRIA3   4774    1       2690    2689    2688    0.
CTRIA3   4775    1       2686    2688    2689    0.
CTRIA3   4776    1       2689    2685    2686    0.
CTRIA3   4777    1       2688    2686    2687    0.
CTRIA3   4778    1       2691    895     1087    0.
CTRIA3   4779    1       1087    1086    2691    0.
CTRIA3   4780    1       2689    2691    1086    0.
CTRIA3   4781    1       1086    2685    2689    0.
CTRIA3   4782    1       895     2691    2662    0.
CTRIA3   4783    1       2690    2662    2691    0.
CTRIA3   4784    1       2691    2689    2690    0.
CTRIA3   4785    1       2662    2690    2660    0.
CTRIA3   4786    1       2660    2693    2662    0.
CTRIA3   4787    1       2692    2662    2693    0.
CTRIA3   4788    1       2693    1154    2692    0.
CTRIA3   4789    1       1153    2692    1154    0.
CTRIA3   4790    1       2662    2692    895     0.
CTRIA3   4791    1       967     895     2692    0.
CTRIA3   4792    1       2692    1153    967     0.
CTRIA3   4793    1       2693    2661    1155    0.
CTRIA3   4794    1       1155    1154    2693    0.
CTRIA3   4795    1       2661    2693    2660    0.
CTRIA3   4796    1       1291    996     2653    0.
CTRIA3   4797    1       2697    2732    2698    0.
CTRIA3   4798    1       2730    2698    2732    0.
CTRIA3   4799    1       2732    2731    2730    0.
CTRIA3   4800    1       2728    2730    2731    0.
CTRIA3   4801    1       2731    2727    2728    0.
CTRIA3   4802    1       2698    2730    2699    0.
CTRIA3   4803    1       2729    2699    2730    0.
CTRIA3   4804    1       2730    2728    2729    0.
CTRIA3   4805    1       2699    2729    2700    0.
CTRIA3   4806    1       2694    2735    2695    0.
CTRIA3   4807    1       2733    2695    2735    0.
CTRIA3   4808    1       2735    2734    2733    0.
CTRIA3   4809    1       2731    2733    2734    0.
CTRIA3   4810    1       2734    2727    2731    0.
CTRIA3   4811    1       2695    2733    2696    0.
CTRIA3   4812    1       2732    2696    2733    0.
CTRIA3   4813    1       2733    2731    2732    0.
CTRIA3   4814    1       2696    2732    2697    0.
CTRIA3   4815    1       2736    1298    1471    0.
CTRIA3   4816    1       1471    2737    2736    0.
CTRIA3   4817    1       2734    2736    2737    0.
CTRIA3   4818    1       2737    2727    2734    0.
CTRIA3   4819    1       1298    2736    1297    0.
CTRIA3   4820    1       2735    1297    2736    0.
CTRIA3   4821    1       2736    2734    2735    0.
CTRIA3   4822    1       1297    2735    2694    0.
CTRIA3   4823    1       2653    2740    1291    0.
CTRIA3   4824    1       2738    1291    2740    0.
CTRIA3   4825    1       2740    2739    2738    0.
CTRIA3   4826    1       2737    2738    2739    0.
CTRIA3   4827    1       2739    2727    2737    0.
CTRIA3   4828    1       1291    2738    1290    0.
CTRIA3   4829    1       1471    1290    2738    0.
CTRIA3   4830    1       2738    2737    1471    0.
CTRIA3   4831    1       2654    2743    2664    0.
CTRIA3   4832    1       2741    2664    2743    0.
CTRIA3   4833    1       2743    2742    2741    0.
CTRIA3   4834    1       2739    2741    2742    0.
CTRIA3   4835    1       2742    2727    2739    0.
CTRIA3   4836    1       2664    2741    2663    0.
CTRIA3   4837    1       2740    2663    2741    0.
CTRIA3   4838    1       2741    2739    2740    0.
CTRIA3   4839    1       2663    2740    2653    0.
CTRIA3   4840    1       2700    2729    2701    0.
CTRIA3   4841    1       2744    2701    2729    0.
CTRIA3   4842    1       2729    2728    2744    0.
CTRIA3   4843    1       2742    2744    2728    0.
CTRIA3   4844    1       2728    2727    2742    0.
CTRIA3   4845    1       2701    2744    2702    0.
CTRIA3   4846    1       2743    2702    2744    0.
CTRIA3   4847    1       2744    2742    2743    0.
CTRIA3   4848    1       2702    2743    2654    0.
CTRIA3   4849    1       2748    1317    1472    0.
CTRIA3   4850    1       1472    2749    2748    0.
CTRIA3   4851    1       2746    2748    2749    0.
CTRIA3   4852    1       2749    2745    2746    0.
CTRIA3   4853    1       1317    2748    2703    0.
CTRIA3   4854    1       2747    2703    2748    0.
CTRIA3   4855    1       2748    2746    2747    0.
CTRIA3   4856    1       2703    2747    2704    0.
CTRIA3   4857    1       2697    2754    2696    0.
CTRIA3   4858    1       2752    2696    2754    0.
CTRIA3   4859    1       2754    2753    2752    0.
CTRIA3   4860    1       2750    2752    2753    0.
CTRIA3   4861    1       2753    2745    2750    0.
CTRIA3   4862    1       2696    2752    2695    0.
CTRIA3   4863    1       2751    2695    2752    0.
CTRIA3   4864    1       2752    2750    2751    0.
CTRIA3   4865    1       2695    2751    2694    0.
CTRIA3   4866    1       2704    2747    2705    0.
CTRIA3   4867    1       2755    2705    2747    0.
CTRIA3   4868    1       2747    2746    2755    0.
CTRIA3   4869    1       2753    2755    2746    0.
CTRIA3   4870    1       2746    2745    2753    0.
CTRIA3   4871    1       2705    2755    2706    0.
CTRIA3   4872    1       2754    2706    2755    0.
CTRIA3   4873    1       2755    2753    2754    0.
CTRIA3   4874    1       2706    2754    2697    0.
CTRIA3   4875    1       2709    2763    2710    0.
CTRIA3   4876    1       2654    2681    2702    0.
CTRIA3   4877    1       2757    2702    2681    0.
CTRIA3   4878    1       2681    2680    2757    0.
CTRIA3   4879    1       2702    2757    2701    0.
CTRIA3   4880    1       2756    2701    2757    0.
CTRIA3   4881    1       2701    2756    2700    0.
CTRIA3   4882    1       2761    2710    2763    0.
CTRIA3   4883    1       2763    2762    2761    0.
CTRIA3   4884    1       2759    2761    2762    0.
CTRIA3   4885    1       2762    2758    2759    0.
CTRIA3   4886    1       2710    2761    2711    0.
CTRIA3   4887    1       2760    2711    2761    0.
CTRIA3   4888    1       2761    2759    2760    0.
CTRIA3   4889    1       2711    2760    2712    0.
CTRIA3   4890    1       2704    2766    2707    0.
CTRIA3   4891    1       2764    2707    2766    0.
CTRIA3   4892    1       2766    2765    2764    0.
CTRIA3   4893    1       2762    2764    2765    0.
CTRIA3   4894    1       2765    2758    2762    0.
CTRIA3   4895    1       2707    2764    2708    0.
CTRIA3   4896    1       2763    2708    2764    0.
CTRIA3   4897    1       2764    2762    2763    0.
CTRIA3   4898    1       2708    2763    2709    0.
CTRIA3   4899    1       2697    2769    2706    0.
CTRIA3   4900    1       2767    2706    2769    0.
CTRIA3   4901    1       2769    2768    2767    0.
CTRIA3   4902    1       2765    2767    2768    0.
CTRIA3   4903    1       2768    2758    2765    0.
CTRIA3   4904    1       2706    2767    2705    0.
CTRIA3   4905    1       2766    2705    2767    0.
CTRIA3   4906    1       2767    2765    2766    0.
CTRIA3   4907    1       2705    2766    2704    0.
CTRIA3   4908    1       2700    2771    2699    0.
CTRIA3   4909    1       2770    2699    2771    0.
CTRIA3   4910    1       2699    2770    2698    0.
CTRIA3   4911    1       2769    2698    2770    0.
CTRIA3   4912    1       2770    2768    2769    0.
CTRIA3   4913    1       2698    2769    2697    0.
CTRIA3   4914    1       2704    2772    2703    0.
CTRIA3   4915    1       1535    2703    2772    0.
CTRIA3   4916    1       2772    1536    1535    0.
CTRIA3   4917    1       2703    1535    1317    0.
CTRIA3   4918    1       2709    2774    2708    0.
CTRIA3   4919    1       2773    2708    2774    0.
CTRIA3   4920    1       2774    1537    2773    0.
CTRIA3   4921    1       1536    2773    1537    0.
CTRIA3   4922    1       2708    2773    2707    0.
CTRIA3   4923    1       2772    2707    2773    0.
CTRIA3   4924    1       2773    1536    2772    0.
CTRIA3   4925    1       2707    2772    2704    0.
CTRIA3   4926    1       1342    1538    2713    0.
CTRIA3   4927    1       2774    2713    1538    0.
CTRIA3   4928    1       1538    1537    2774    0.
CTRIA3   4929    1       2713    2774    2709    0.
CTRIA3   4930    1       2778    1355    1570    0.
CTRIA3   4931    1       1570    2779    2778    0.
CTRIA3   4932    1       2776    2778    2779    0.
CTRIA3   4933    1       2779    2775    2776    0.
CTRIA3   4934    1       1355    2778    2720    0.
CTRIA3   4935    1       2777    2720    2778    0.
CTRIA3   4936    1       2778    2776    2777    0.
CTRIA3   4937    1       2720    2777    2721    0.
CTRIA3   4938    1       1572    2780    1571    0.
CTRIA3   4939    1       2779    1571    2780    0.
CTRIA3   4940    1       2780    2775    2779    0.
CTRIA3   4941    1       1571    2779    1570    0.
CTRIA3   4942    1       2709    2783    2713    0.
CTRIA3   4943    1       2781    2713    2783    0.
CTRIA3   4944    1       2783    2782    2781    0.
CTRIA3   4945    1       2780    2781    2782    0.
CTRIA3   4946    1       2782    2775    2780    0.
CTRIA3   4947    1       2713    2781    1342    0.
CTRIA3   4948    1       1572    1342    2781    0.
CTRIA3   4949    1       2781    2780    1572    0.
CTRIA3   4950    1       2712    2786    2711    0.
CTRIA3   4951    1       2784    2711    2786    0.
CTRIA3   4952    1       2786    2785    2784    0.
CTRIA3   4953    1       2782    2784    2785    0.
CTRIA3   4954    1       2785    2775    2782    0.
CTRIA3   4955    1       2711    2784    2710    0.
CTRIA3   4956    1       2783    2710    2784    0.
CTRIA3   4957    1       2784    2782    2783    0.
CTRIA3   4958    1       2710    2783    2709    0.
CTRIA3   4959    1       2716    2789    2715    0.
CTRIA3   4960    1       2787    2715    2789    0.
CTRIA3   4961    1       2789    2788    2787    0.
CTRIA3   4962    1       2785    2787    2788    0.
CTRIA3   4963    1       2788    2775    2785    0.
CTRIA3   4964    1       2715    2787    2714    0.
CTRIA3   4965    1       2786    2714    2787    0.
CTRIA3   4966    1       2787    2785    2786    0.
CTRIA3   4967    1       2714    2786    2712    0.
CTRIA3   4968    1       2721    2777    2722    0.
CTRIA3   4969    1       2790    2722    2777    0.
CTRIA3   4970    1       2777    2776    2790    0.
CTRIA3   4971    1       2788    2790    2776    0.
CTRIA3   4972    1       2776    2775    2788    0.
CTRIA3   4973    1       2722    2790    2723    0.
CTRIA3   4974    1       2789    2723    2790    0.
CTRIA3   4975    1       2790    2788    2789    0.
CTRIA3   4976    1       2723    2789    2716    0.
CTRIA3   4977    1       965     1597    2685    0.
CTRIA3   4978    1       2718    2719    2793    0.
CTRIA3   4979    1       2791    2793    2719    0.
CTRIA3   4980    1       2793    2791    2792    0.
CTRIA3   4981    1       2686    2792    2791    0.
CTRIA3   4982    1       2792    2686    2685    0.
CTRIA3   4983    1       2791    2687    2686    0.
CTRIA3   4984    1       2794    1598    1360    0.
CTRIA3   4985    1       1598    2794    1597    0.
CTRIA3   4986    1       2792    1597    2794    0.
CTRIA3   4987    1       1597    2792    2685    0.
CTRIA3   4988    1       1360    2724    2794    0.
CTRIA3   4989    1       2793    2794    2724    0.
CTRIA3   4990    1       2794    2793    2792    0.
CTRIA3   4991    1       2724    2718    2793    0.
CTRIA3   4992    1       1397    1396    2795    0.
CTRIA3   4993    1       1599    1397    2795    0.
CTRIA3   4994    1       2718    2724    2798    0.
CTRIA3   4995    1       2796    2798    2724    0.
CTRIA3   4996    1       2798    2796    2797    0.
CTRIA3   4997    1       1599    2797    2796    0.
CTRIA3   4998    1       2797    1599    2795    0.
CTRIA3   4999    1       2724    1360    2796    0.
CTRIA3   5000    1       1399    2796    1360    0.
CTRIA3   5001    1       2796    1399    1599    0.
CTRIA3   5002    1       2801    2799    2800    0.
CTRIA3   5003    1       2797    2800    2799    0.
CTRIA3   5004    1       2800    2797    2795    0.
CTRIA3   5005    1       2798    2799    2717    0.
CTRIA3   5006    1       2799    2798    2797    0.
CTRIA3   5007    1       2717    2718    2798    0.
CTRIA3   5008    1       2721    2722    2804    0.
CTRIA3   5009    1       2802    2804    2722    0.
CTRIA3   5010    1       2804    2802    2803    0.
CTRIA3   5011    1       2800    2803    2802    0.
CTRIA3   5012    1       2803    2800    2795    0.
CTRIA3   5013    1       2722    2723    2802    0.
CTRIA3   5014    1       2801    2802    2723    0.
CTRIA3   5015    1       2802    2801    2800    0.
CTRIA3   5016    1       2723    2716    2801    0.
CTRIA3   5017    1       2805    1395    1374    0.
CTRIA3   5018    1       1395    2805    1396    0.
CTRIA3   5019    1       2803    1396    2805    0.
CTRIA3   5020    1       1396    2803    2795    0.
CTRIA3   5021    1       1374    2725    2805    0.
CTRIA3   5022    1       2804    2805    2725    0.
CTRIA3   5023    1       2805    2804    2803    0.
CTRIA3   5024    1       2725    2721    2804    0.
CTRIA3   5025    1       2721    2725    2806    0.
CTRIA3   5026    1       2726    2806    2725    0.
CTRIA3   5027    1       2806    2726    1394    0.
CTRIA3   5028    1       2725    1374    2726    0.
CTRIA3   5029    1       1355    2720    1600    0.
CTRIA3   5030    1       2806    1600    2720    0.
CTRIA3   5031    1       1600    2806    1394    0.
CTRIA3   5032    1       2720    2721    2806    0.
CQUAD4   5033    1       1394    2726    2807    1627    0.
CQUAD4   5034    1       2726    1374    1628    2807    0.
CTRIA3   5035    1       1296    1421    2694    0.
CTRIA3   5036    1       2694    1421    1297    0.
CTRIA3   5037    1       1474    2808    1473    0.
CTRIA3   5038    1       2749    1473    2808    0.
CTRIA3   5039    1       2808    2745    2749    0.
CTRIA3   5040    1       1473    2749    1472    0.
CTRIA3   5041    1       2809    1306    1475    0.
CTRIA3   5042    1       1475    2810    2809    0.
CTRIA3   5043    1       2808    2809    2810    0.
CTRIA3   5044    1       2810    2745    2808    0.
CTRIA3   5045    1       1306    2809    1305    0.
CTRIA3   5046    1       1474    1305    2809    0.
CTRIA3   5047    1       2809    2808    1474    0.
CTRIA3   5048    1       2694    2751    1296    0.
CTRIA3   5049    1       2811    1296    2751    0.
CTRIA3   5050    1       2751    2750    2811    0.
CTRIA3   5051    1       2810    2811    2750    0.
CTRIA3   5052    1       2750    2745    2810    0.
CTRIA3   5053    1       1296    2811    1295    0.
CTRIA3   5054    1       1475    1295    2811    0.
CTRIA3   5055    1       2811    2810    1475    0.
CTRIA3   5056    1       2812    1787    1636    0.
CTRIA3   5057    1       2816    2822    1654    0.
CTRIA3   5058    1       1819    1654    2822    0.
CTRIA3   5059    1       2822    1820    1819    0.
CTRIA3   5060    1       2813    2825    2814    0.
CTRIA3   5061    1       2823    2814    2825    0.
CTRIA3   5062    1       2825    2824    2823    0.
CTRIA3   5063    1       1820    2823    2824    0.
CTRIA3   5064    1       2824    1816    1820    0.
CTRIA3   5065    1       2822    2815    2823    0.
CTRIA3   5066    1       2823    1820    2822    0.
CTRIA3   5067    1       2815    2822    2816    0.
CTRIA3   5068    1       2812    2827    2820    0.
CTRIA3   5069    1       2826    2820    2827    0.
CTRIA3   5070    1       2827    1821    2826    0.
CTRIA3   5071    1       2824    2826    1821    0.
CTRIA3   5072    1       1821    1816    2824    0.
CTRIA3   5073    1       2820    2826    2821    0.
CTRIA3   5074    1       2825    2821    2826    0.
CTRIA3   5075    1       2826    2824    2825    0.
CTRIA3   5076    1       2821    2825    2813    0.
CTRIA3   5077    1       2827    1636    1822    0.
CTRIA3   5078    1       1822    1821    2827    0.
CTRIA3   5079    1       1636    2827    2812    0.
CTRIA3   5080    1       2814    2828    2813    0.
CTRIA3   5081    1       2819    2829    1675    0.
CTRIA3   5082    1       1870    1675    2829    0.
CTRIA3   5083    1       2829    1871    1870    0.
CTRIA3   5084    1       2832    2831    2830    0.
CTRIA3   5085    1       1871    2830    2831    0.
CTRIA3   5086    1       2831    1867    1871    0.
CTRIA3   5087    1       2829    2818    2830    0.
CTRIA3   5088    1       2830    1871    2829    0.
CTRIA3   5089    1       2818    2829    2819    0.
CTRIA3   5090    1       2816    2834    2817    0.
CTRIA3   5091    1       2833    2817    2834    0.
CTRIA3   5092    1       2834    1872    2833    0.
CTRIA3   5093    1       2831    2833    1872    0.
CTRIA3   5094    1       1872    1867    2831    0.
CTRIA3   5095    1       2833    2831    2832    0.
CTRIA3   5096    1       2834    1654    1873    0.
CTRIA3   5097    1       1873    1872    2834    0.
CTRIA3   5098    1       1654    2834    2816    0.
CTRIA3   5099    1       2819    1942    1684    0.
CTRIA3   5100    1       1675    1942    2819    0.
CTRIA3   5101    1       2089    1787    2812    0.
CTRIA3   5102    1       2835    2862    2836    0.
CTRIA3   5103    1       2860    2836    2862    0.
CTRIA3   5104    1       2862    2861    2860    0.
CTRIA3   5105    1       2858    2860    2861    0.
CTRIA3   5106    1       2861    2857    2858    0.
CTRIA3   5107    1       2836    2860    2837    0.
CTRIA3   5108    1       2859    2837    2860    0.
CTRIA3   5109    1       2860    2858    2859    0.
CTRIA3   5110    1       2837    2859    2838    0.
CTRIA3   5111    1       2861    2263    2264    0.
CTRIA3   5112    1       2264    2857    2861    0.
CTRIA3   5113    1       2862    2112    2263    0.
CTRIA3   5114    1       2263    2861    2862    0.
CTRIA3   5115    1       2112    2862    2835    0.
CTRIA3   5116    1       2267    2857    2264    0.
CTRIA3   5117    1       2812    2864    2089    0.
CTRIA3   5118    1       2269    2089    2864    0.
CTRIA3   5119    1       2864    2863    2269    0.
CTRIA3   5120    1       2267    2269    2863    0.
CTRIA3   5121    1       2863    2857    2267    0.
CTRIA3   5122    1       2813    2867    2821    0.
CTRIA3   5123    1       2865    2821    2867    0.
CTRIA3   5124    1       2867    2866    2865    0.
CTRIA3   5125    1       2863    2865    2866    0.
CTRIA3   5126    1       2866    2857    2863    0.
CTRIA3   5127    1       2821    2865    2820    0.
CTRIA3   5128    1       2864    2820    2865    0.
CTRIA3   5129    1       2865    2863    2864    0.
CTRIA3   5130    1       2820    2864    2812    0.
CTRIA3   5131    1       2838    2859    2839    0.
CTRIA3   5132    1       2868    2839    2859    0.
CTRIA3   5133    1       2859    2858    2868    0.
CTRIA3   5134    1       2866    2868    2858    0.
CTRIA3   5135    1       2858    2857    2866    0.
CTRIA3   5136    1       2839    2868    2840    0.
CTRIA3   5137    1       2867    2840    2868    0.
CTRIA3   5138    1       2868    2866    2867    0.
CTRIA3   5139    1       2840    2867    2813    0.
CTRIA3   5140    1       2117    2272    2841    0.
CTRIA3   5141    1       2835    2287    2112    0.
CTRIA3   5142    1       2841    2272    2842    0.
CTRIA3   5143    1       2288    2842    2272    0.
CTRIA3   5144    1       2842    2288    2843    0.
CTRIA3   5145    1       2287    2843    2288    0.
CTRIA3   5146    1       2843    2287    2835    0.
CTRIA3   5147    1       2847    2875    2848    0.
CTRIA3   5148    1       2838    2869    2844    0.
CTRIA3   5149    1       2813    2828    2840    0.
CTRIA3   5150    1       2870    2840    2828    0.
CTRIA3   5151    1       2840    2870    2839    0.
CTRIA3   5152    1       2869    2839    2870    0.
CTRIA3   5153    1       2839    2869    2838    0.
CTRIA3   5154    1       2873    2848    2875    0.
CTRIA3   5155    1       2875    2874    2873    0.
CTRIA3   5156    1       2872    2873    2874    0.
CTRIA3   5157    1       2874    2871    2872    0.
CTRIA3   5158    1       2841    2878    2845    0.
CTRIA3   5159    1       2876    2845    2878    0.
CTRIA3   5160    1       2878    2877    2876    0.
CTRIA3   5161    1       2874    2876    2877    0.
CTRIA3   5162    1       2877    2871    2874    0.
CTRIA3   5163    1       2845    2876    2846    0.
CTRIA3   5164    1       2875    2846    2876    0.
CTRIA3   5165    1       2876    2874    2875    0.
CTRIA3   5166    1       2846    2875    2847    0.
CTRIA3   5167    1       2835    2881    2843    0.
CTRIA3   5168    1       2879    2843    2881    0.
CTRIA3   5169    1       2881    2880    2879    0.
CTRIA3   5170    1       2877    2879    2880    0.
CTRIA3   5171    1       2880    2871    2877    0.
CTRIA3   5172    1       2843    2879    2842    0.
CTRIA3   5173    1       2878    2842    2879    0.
CTRIA3   5174    1       2879    2877    2878    0.
CTRIA3   5175    1       2842    2878    2841    0.
CTRIA3   5176    1       2838    2884    2837    0.
CTRIA3   5177    1       2882    2837    2884    0.
CTRIA3   5178    1       2884    2883    2882    0.
CTRIA3   5179    1       2880    2882    2883    0.
CTRIA3   5180    1       2883    2871    2880    0.
CTRIA3   5181    1       2837    2882    2836    0.
CTRIA3   5182    1       2881    2836    2882    0.
CTRIA3   5183    1       2882    2880    2881    0.
CTRIA3   5184    1       2836    2881    2835    0.
CTRIA3   5185    1       2883    2885    2886    0.
CTRIA3   5186    1       2886    2871    2883    0.
CTRIA3   5187    1       2884    2844    2885    0.
CTRIA3   5188    1       2885    2883    2884    0.
CTRIA3   5189    1       2844    2884    2838    0.
CTRIA3   5190    1       2872    2871    2886    0.
CTRIA3   5191    1       2336    2887    2333    0.
CTRIA3   5192    1       2339    2887    2336    0.
CTRIA3   5193    1       2342    2887    2339    0.
CTRIA3   5194    1       2841    2889    2117    0.
CTRIA3   5195    1       2344    2117    2889    0.
CTRIA3   5196    1       2889    2888    2344    0.
CTRIA3   5197    1       2342    2344    2888    0.
CTRIA3   5198    1       2888    2887    2342    0.
CTRIA3   5199    1       2847    2892    2846    0.
CTRIA3   5200    1       2890    2846    2892    0.
CTRIA3   5201    1       2892    2891    2890    0.
CTRIA3   5202    1       2888    2890    2891    0.
CTRIA3   5203    1       2891    2887    2888    0.
CTRIA3   5204    1       2846    2890    2845    0.
CTRIA3   5205    1       2889    2845    2890    0.
CTRIA3   5206    1       2890    2888    2889    0.
CTRIA3   5207    1       2845    2889    2841    0.
CTRIA3   5208    1       2893    2142    2334    0.
CTRIA3   5209    1       2334    2333    2893    0.
CTRIA3   5210    1       2891    2893    2333    0.
CTRIA3   5211    1       2333    2887    2891    0.
CTRIA3   5212    1       2142    2893    2850    0.
CTRIA3   5213    1       2892    2850    2893    0.
CTRIA3   5214    1       2893    2891    2892    0.
CTRIA3   5215    1       2850    2892    2847    0.
CTRIA3   5216    1       2853    2894    2854    0.
CTRIA3   5217    1       2852    2894    2853    0.
CTRIA3   5218    1       2379    2895    2376    0.
CTRIA3   5219    1       2382    2895    2379    0.
CTRIA3   5220    1       2847    2898    2850    0.
CTRIA3   5221    1       2896    2850    2898    0.
CTRIA3   5222    1       2898    2897    2896    0.
CTRIA3   5223    1       2382    2896    2897    0.
CTRIA3   5224    1       2897    2895    2382    0.
CTRIA3   5225    1       2850    2896    2142    0.
CTRIA3   5226    1       2383    2142    2896    0.
CTRIA3   5227    1       2896    2382    2383    0.
CTRIA3   5228    1       2899    2849    2901    0.
CTRIA3   5229    1       2901    2900    2899    0.
CTRIA3   5230    1       2897    2899    2900    0.
CTRIA3   5231    1       2900    2895    2897    0.
CTRIA3   5232    1       2849    2899    2848    0.
CTRIA3   5233    1       2898    2848    2899    0.
CTRIA3   5234    1       2899    2897    2898    0.
CTRIA3   5235    1       2848    2898    2847    0.
CTRIA3   5236    1       2853    2904    2852    0.
CTRIA3   5237    1       2902    2852    2904    0.
CTRIA3   5238    1       2904    2903    2902    0.
CTRIA3   5239    1       2900    2902    2903    0.
CTRIA3   5240    1       2903    2895    2900    0.
CTRIA3   5241    1       2852    2902    2851    0.
CTRIA3   5242    1       2901    2851    2902    0.
CTRIA3   5243    1       2902    2900    2901    0.
CTRIA3   5244    1       2905    2158    2377    0.
CTRIA3   5245    1       2377    2376    2905    0.
CTRIA3   5246    1       2903    2905    2376    0.
CTRIA3   5247    1       2376    2895    2903    0.
CTRIA3   5248    1       2158    2905    2856    0.
CTRIA3   5249    1       2904    2856    2905    0.
CTRIA3   5250    1       2905    2903    2904    0.
CTRIA3   5251    1       2856    2904    2853    0.
CTRIA3   5252    1       2201    2200    2906    0.
CTRIA3   5253    1       2410    2201    2906    0.
CTRIA3   5254    1       2411    2908    2163    0.
CTRIA3   5255    1       2908    2411    2907    0.
CTRIA3   5256    1       2410    2907    2411    0.
CTRIA3   5257    1       2907    2410    2906    0.
CTRIA3   5258    1       2853    2854    2911    0.
CTRIA3   5259    1       2909    2911    2854    0.
CTRIA3   5260    1       2911    2909    2910    0.
CTRIA3   5261    1       2907    2910    2909    0.
CTRIA3   5262    1       2910    2907    2906    0.
CTRIA3   5263    1       2854    2855    2909    0.
CTRIA3   5264    1       2908    2909    2855    0.
CTRIA3   5265    1       2909    2908    2907    0.
CTRIA3   5266    1       2912    2413    2158    0.
CTRIA3   5267    1       2413    2912    2412    0.
CTRIA3   5268    1       2910    2412    2912    0.
CTRIA3   5269    1       2412    2910    2906    0.
CTRIA3   5270    1       2158    2856    2912    0.
CTRIA3   5271    1       2911    2912    2856    0.
CTRIA3   5272    1       2912    2911    2910    0.
CTRIA3   5273    1       2856    2853    2911    0.
CTRIA3   5274    1       2200    2412    2906    0.
CTRIA3   5275    1       2621    2913    2456    0.
CTRIA3   5276    1       2913    44      2456    0.
CTRIA3   5277    1       44      2913    2453    0.
CTRIA3   5278    1       2913    2621    2453    0.
CTRIA3   5279    1       51      2914    2455    0.
CTRIA3   5280    1       2914    2622    2455    0.
CTRIA3   5281    1       2622    2914    2458    0.
CTRIA3   5282    1       2914    51      2458    0.
CTRIA3   5283    1       2496    2915    2601    0.
CTRIA3   5284    1       2915    2497    2601    0.
CTRIA3   5285    1       2497    2915    2577    0.
CTRIA3   5286    1       2915    2496    2577    0.
CTRIA3   5287    1       2486    2916    2568    0.
CTRIA3   5288    1       2916    2487    2568    0.
CTRIA3   5289    1       2487    2916    2555    0.
CTRIA3   5290    1       2916    2486    2555    0.
CTRIA3   5291    1       2475    2917    2531    0.
CTRIA3   5292    1       2917    2474    2531    0.
CTRIA3   5293    1       2474    2917    2552    0.
CTRIA3   5294    1       2917    2475    2552    0.
CTRIA3   5295    1       2620    2918    2632    0.
CTRIA3   5296    1       2918    2619    2632    0.
CTRIA3   5297    1       2619    2918    2635    0.
CTRIA3   5298    1       2918    2620    2635    0.
CTRIA3   5299    1       2660    2922    2661    0.
CTRIA3   5300    1       2920    2661    2922    0.
CTRIA3   5301    1       2922    2921    2920    0.
CTRIA3   5302    1       2919    2920    2921    0.
CTRIA3   5303    1       2661    2920    891     0.
CTRIA3   5304    1       1083    891     2920    0.
CTRIA3   5305    1       2920    2919    1083    0.
CTRIA3   5306    1       2659    2922    2660    0.
CTRIA3   5307    1       1083    2919    1085    0.
CTRIA3   5308    1       2923    1085    2919    0.
CTRIA3   5309    1       1085    2923    1084    0.
CTRIA3   5310    1       891     1155    2661    0.
CTRIA3   5311    1       2921    2924    2919    0.
CTRIA3   5312    1       2922    2659    2925    0.
CTRIA3   5313    1       2925    2921    2922    0.
CTRIA3   5314    1       2926    884     1084    0.
CTRIA3   5315    1       1084    2923    2926    0.
CTRIA3   5316    1       2919    2924    2923    0.
CTRIA3   5317    1       2929    2945    2930    0.
CTRIA3   5318    1       2943    2930    2945    0.
CTRIA3   5319    1       2945    2944    2943    0.
CTRIA3   5320    1       2941    2943    2944    0.
CTRIA3   5321    1       2944    2940    2941    0.
CTRIA3   5322    1       2930    2943    2931    0.
CTRIA3   5323    1       2942    2931    2943    0.
CTRIA3   5324    1       2943    2941    2942    0.
CTRIA3   5325    1       2931    2942    2932    0.
CTRIA3   5326    1       2700    2756    2927    0.
CTRIA3   5327    1       2946    2927    2756    0.
CTRIA3   5328    1       2756    2947    2946    0.
CTRIA3   5329    1       2944    2946    2947    0.
CTRIA3   5330    1       2947    2940    2944    0.
CTRIA3   5331    1       2945    2928    2946    0.
CTRIA3   5332    1       2946    2944    2945    0.
CTRIA3   5333    1       2928    2945    2929    0.
CTRIA3   5334    1       2947    2757    2680    0.
CTRIA3   5335    1       2680    2940    2947    0.
CTRIA3   5336    1       2757    2947    2756    0.
CTRIA3   5337    1       2771    2948    2770    0.
CTRIA3   5338    1       2768    2770    2948    0.
CTRIA3   5339    1       2948    2758    2768    0.
CTRIA3   5340    1       2929    2951    2928    0.
CTRIA3   5341    1       2949    2928    2951    0.
CTRIA3   5342    1       2951    2950    2949    0.
CTRIA3   5343    1       2948    2949    2950    0.
CTRIA3   5344    1       2950    2758    2948    0.
CTRIA3   5345    1       2771    2927    2949    0.
CTRIA3   5346    1       2949    2948    2771    0.
CTRIA3   5347    1       2927    2771    2700    0.
CTRIA3   5348    1       2712    2760    2933    0.
CTRIA3   5349    1       2952    2933    2760    0.
CTRIA3   5350    1       2760    2759    2952    0.
CTRIA3   5351    1       2950    2952    2759    0.
CTRIA3   5352    1       2759    2758    2950    0.
CTRIA3   5353    1       2951    2934    2952    0.
CTRIA3   5354    1       2952    2950    2951    0.
CTRIA3   5355    1       2934    2951    2929    0.
CTRIA3   5356    1       2716    2958    2935    0.
CTRIA3   5357    1       2956    2935    2958    0.
CTRIA3   5358    1       2958    2957    2956    0.
CTRIA3   5359    1       2954    2956    2957    0.
CTRIA3   5360    1       2957    2953    2954    0.
CTRIA3   5361    1       2935    2956    2717    0.
CTRIA3   5362    1       2955    2717    2956    0.
CTRIA3   5363    1       2956    2954    2955    0.
CTRIA3   5364    1       2717    2955    2718    0.
CTRIA3   5365    1       2712    2961    2714    0.
CTRIA3   5366    1       2959    2714    2961    0.
CTRIA3   5367    1       2961    2960    2959    0.
CTRIA3   5368    1       2957    2959    2960    0.
CTRIA3   5369    1       2960    2953    2957    0.
CTRIA3   5370    1       2714    2959    2715    0.
CTRIA3   5371    1       2958    2715    2959    0.
CTRIA3   5372    1       2959    2957    2958    0.
CTRIA3   5373    1       2715    2958    2716    0.
CTRIA3   5374    1       2929    2964    2934    0.
CTRIA3   5375    1       2962    2934    2964    0.
CTRIA3   5376    1       2964    2963    2962    0.
CTRIA3   5377    1       2960    2962    2963    0.
CTRIA3   5378    1       2963    2953    2960    0.
CTRIA3   5379    1       2961    2933    2962    0.
CTRIA3   5380    1       2962    2960    2961    0.
CTRIA3   5381    1       2933    2961    2712    0.
CTRIA3   5382    1       2932    2967    2931    0.
CTRIA3   5383    1       2965    2931    2967    0.
CTRIA3   5384    1       2967    2966    2965    0.
CTRIA3   5385    1       2963    2965    2966    0.
CTRIA3   5386    1       2966    2953    2963    0.
CTRIA3   5387    1       2931    2965    2930    0.
CTRIA3   5388    1       2964    2930    2965    0.
CTRIA3   5389    1       2965    2963    2964    0.
CTRIA3   5390    1       2930    2964    2929    0.
CTRIA3   5391    1       2937    2970    2938    0.
CTRIA3   5392    1       2968    2938    2970    0.
CTRIA3   5393    1       2970    2969    2968    0.
CTRIA3   5394    1       2966    2968    2969    0.
CTRIA3   5395    1       2969    2953    2966    0.
CTRIA3   5396    1       2938    2968    2939    0.
CTRIA3   5397    1       2967    2939    2968    0.
CTRIA3   5398    1       2968    2966    2967    0.
CTRIA3   5399    1       2939    2967    2932    0.
CTRIA3   5400    1       2718    2955    2719    0.
CTRIA3   5401    1       2971    2719    2955    0.
CTRIA3   5402    1       2955    2954    2971    0.
CTRIA3   5403    1       2969    2971    2954    0.
CTRIA3   5404    1       2954    2953    2969    0.
CTRIA3   5405    1       2970    2936    2971    0.
CTRIA3   5406    1       2971    2969    2970    0.
CTRIA3   5407    1       2936    2970    2937    0.
CTRIA3   5408    1       2687    2791    2936    0.
CTRIA3   5409    1       2936    2937    2687    0.
CTRIA3   5410    1       2716    2935    2801    0.
CTRIA3   5411    1       2799    2801    2935    0.
CTRIA3   5412    1       2935    2717    2799    0.
CTRIA3   5413    1       2932    2942    2972    0.
CTRIA3   5414    1       2981    2972    2942    0.
CTRIA3   5415    1       2942    2941    2981    0.
CTRIA3   5416    1       2979    2981    2941    0.
CTRIA3   5417    1       2941    2940    2979    0.
CTRIA3   5418    1       2972    2981    2973    0.
CTRIA3   5419    1       2980    2973    2981    0.
CTRIA3   5420    1       2981    2979    2980    0.
CTRIA3   5421    1       2973    2980    2974    0.
CTRIA3   5422    1       2683    2982    2682    0.
CTRIA3   5423    1       2680    2682    2982    0.
CTRIA3   5424    1       2982    2940    2680    0.
CTRIA3   5425    1       2974    2980    2975    0.
CTRIA3   5426    1       2983    2975    2980    0.
CTRIA3   5427    1       2980    2979    2983    0.
CTRIA3   5428    1       2982    2983    2979    0.
CTRIA3   5429    1       2979    2940    2982    0.
CTRIA3   5430    1       2683    2976    2983    0.
CTRIA3   5431    1       2983    2982    2683    0.
CTRIA3   5432    1       2976    2683    2657    0.
CTRIA3   5433    1       2974    2984    2977    0.
CTRIA3   5434    1       1073    2977    2984    0.
CTRIA3   5435    1       2984    1074    1073    0.
CTRIA3   5436    1       2657    2684    2976    0.
CTRIA3   5437    1       2985    2976    2684    0.
CTRIA3   5438    1       2684    1075    2985    0.
CTRIA3   5439    1       1074    2985    1075    0.
CTRIA3   5440    1       2984    2975    2985    0.
CTRIA3   5441    1       2985    1074    2984    0.
CTRIA3   5442    1       2975    2984    2974    0.
CTRIA3   5443    1       1076    1075    2684    0.
CTRIA3   5444    1       2937    2987    2978    0.
CTRIA3   5445    1       2925    2978    2987    0.
CTRIA3   5446    1       2987    2986    2925    0.
CTRIA3   5447    1       2921    2925    2986    0.
CTRIA3   5448    1       2986    2924    2921    0.
CTRIA3   5449    1       2932    2990    2939    0.
CTRIA3   5450    1       2988    2939    2990    0.
CTRIA3   5451    1       2990    2989    2988    0.
CTRIA3   5452    1       2986    2988    2989    0.
CTRIA3   5453    1       2989    2924    2986    0.
CTRIA3   5454    1       2939    2988    2938    0.
CTRIA3   5455    1       2987    2938    2988    0.
CTRIA3   5456    1       2988    2986    2987    0.
CTRIA3   5457    1       2938    2987    2937    0.
CTRIA3   5458    1       2974    2993    2973    0.
CTRIA3   5459    1       2991    2973    2993    0.
CTRIA3   5460    1       2993    2992    2991    0.
CTRIA3   5461    1       2989    2991    2992    0.
CTRIA3   5462    1       2992    2924    2989    0.
CTRIA3   5463    1       2973    2991    2972    0.
CTRIA3   5464    1       2990    2972    2991    0.
CTRIA3   5465    1       2991    2989    2990    0.
CTRIA3   5466    1       2972    2990    2932    0.
CTRIA3   5467    1       2992    2926    2923    0.
CTRIA3   5468    1       2923    2924    2992    0.
CTRIA3   5469    1       2993    2977    2926    0.
CTRIA3   5470    1       2926    2992    2993    0.
CTRIA3   5471    1       2977    2993    2974    0.
CTRIA3   5472    1       2687    2978    2688    0.
CTRIA3   5473    1       2978    2687    2937    0.
CTRIA3   5474    1       2977    2994    2926    0.
CTRIA3   5475    1       2994    884     2926    0.
CTRIA3   5476    1       884     2994    1073    0.
CTRIA3   5477    1       2994    2977    1073    0.
CTRIA3   5478    1       2659    2995    2925    0.
CTRIA3   5479    1       2995    2978    2925    0.
CTRIA3   5480    1       2978    2995    2688    0.
CTRIA3   5481    1       2995    2659    2688    0.
CTRIA3   5482    1       2719    2996    2791    0.
CTRIA3   5483    1       2996    2936    2791    0.
CTRIA3   5484    1       2936    2996    2971    0.
CTRIA3   5485    1       2996    2719    2971    0.
CTRIA3   5486    1       2933    2997    2962    0.
CTRIA3   5487    1       2997    2934    2962    0.
CTRIA3   5488    1       2934    2997    2952    0.
CTRIA3   5489    1       2997    2933    2952    0.
CTRIA3   5490    1       2928    2998    2946    0.
CTRIA3   5491    1       2998    2927    2946    0.
CTRIA3   5492    1       2927    2998    2949    0.
CTRIA3   5493    1       2998    2928    2949    0.
CTRIA3   5494    1       2976    2999    2983    0.
CTRIA3   5495    1       2999    2975    2983    0.
CTRIA3   5496    1       2975    2999    2985    0.
CTRIA3   5497    1       2999    2976    2985    0.
CTRIA3   5498    1       1680    3006    1681    0.
CTRIA3   5499    1       3004    1681    3006    0.
CTRIA3   5500    1       3006    3005    3004    0.
CTRIA3   5501    1       3002    3004    3005    0.
CTRIA3   5502    1       1681    3004    1682    0.
CTRIA3   5503    1       3003    1682    3004    0.
CTRIA3   5504    1       3004    3002    3003    0.
CTRIA3   5505    1       1682    3003    1683    0.
CTRIA3   5506    1       3000    3006    1680    0.
CTRIA3   5507    1       2819    3008    2818    0.
CTRIA3   5508    1       1683    3003    3001    0.
CTRIA3   5509    1       3009    3001    3003    0.
CTRIA3   5510    1       3003    3002    3009    0.
CTRIA3   5511    1       3007    3009    3002    0.
CTRIA3   5512    1       3001    3009    1684    0.
CTRIA3   5513    1       3008    1684    3009    0.
CTRIA3   5514    1       3009    3007    3008    0.
CTRIA3   5515    1       1684    3008    2819    0.
CTRIA3   5516    1       1680    1884    3000    0.
CTRIA3   5517    1       1684    1940    3001    0.
CTRIA3   5518    1       1939    3001    1940    0.
CTRIA3   5519    1       3001    1939    1683    0.
CTRIA3   5520    1       3005    3010    3002    0.
CTRIA3   5521    1       3006    3000    3011    0.
CTRIA3   5522    1       3011    3005    3006    0.
CTRIA3   5523    1       3012    2818    3008    0.
CTRIA3   5524    1       3008    3007    3012    0.
CTRIA3   5525    1       3002    3010    3007    0.
CTRIA3   5526    1       3013    3000    1884    0.
CTRIA3   5527    1       1884    1883    3013    0.
CTRIA3   5528    1       3015    3033    3016    0.
CTRIA3   5529    1       3031    3016    3033    0.
CTRIA3   5530    1       3033    3032    3031    0.
CTRIA3   5531    1       3029    3031    3032    0.
CTRIA3   5532    1       3032    3028    3029    0.
CTRIA3   5533    1       3016    3031    3017    0.
CTRIA3   5534    1       3030    3017    3031    0.
CTRIA3   5535    1       3031    3029    3030    0.
CTRIA3   5536    1       3017    3030    3018    0.
CTRIA3   5537    1       3034    2844    2869    0.
CTRIA3   5538    1       2869    3035    3034    0.
CTRIA3   5539    1       3032    3034    3035    0.
CTRIA3   5540    1       3035    3028    3032    0.
CTRIA3   5541    1       3033    3014    3034    0.
CTRIA3   5542    1       3034    3032    3033    0.
CTRIA3   5543    1       3014    3033    3015    0.
CTRIA3   5544    1       2828    3036    2870    0.
CTRIA3   5545    1       3035    2870    3036    0.
CTRIA3   5546    1       3036    3028    3035    0.
CTRIA3   5547    1       2870    3035    2869    0.
CTRIA3   5548    1       2848    2873    2849    0.
CTRIA3   5549    1       3037    2849    2873    0.
CTRIA3   5550    1       2873    2872    3037    0.
CTRIA3   5551    1       2849    3037    3019    0.
CTRIA3   5552    1       3015    3038    3014    0.
CTRIA3   5553    1       2885    3014    3038    0.
CTRIA3   5554    1       3038    2886    2885    0.
CTRIA3   5555    1       3019    3037    3020    0.
CTRIA3   5556    1       3039    3020    3037    0.
CTRIA3   5557    1       3037    2872    3039    0.
CTRIA3   5558    1       2886    3039    2872    0.
CTRIA3   5559    1       3038    3021    3039    0.
CTRIA3   5560    1       3039    2886    3038    0.
CTRIA3   5561    1       3021    3038    3015    0.
CTRIA3   5562    1       3043    2854    2894    0.
CTRIA3   5563    1       2894    3044    3043    0.
CTRIA3   5564    1       3041    3043    3044    0.
CTRIA3   5565    1       3044    3040    3041    0.
CTRIA3   5566    1       2854    3043    2855    0.
CTRIA3   5567    1       3042    2855    3043    0.
CTRIA3   5568    1       3043    3041    3042    0.
CTRIA3   5569    1       2855    3042    3022    0.
CTRIA3   5570    1       3019    3047    2851    0.
CTRIA3   5571    1       3045    2851    3047    0.
CTRIA3   5572    1       3047    3046    3045    0.
CTRIA3   5573    1       3044    3045    3046    0.
CTRIA3   5574    1       3046    3040    3044    0.
CTRIA3   5575    1       2851    3045    2852    0.
CTRIA3   5576    1       2894    2852    3045    0.
CTRIA3   5577    1       3045    3044    2894    0.
CTRIA3   5578    1       3015    3050    3021    0.
CTRIA3   5579    1       3048    3021    3050    0.
CTRIA3   5580    1       3050    3049    3048    0.
CTRIA3   5581    1       3046    3048    3049    0.
CTRIA3   5582    1       3049    3040    3046    0.
CTRIA3   5583    1       3047    3020    3048    0.
CTRIA3   5584    1       3048    3046    3047    0.
CTRIA3   5585    1       3020    3047    3019    0.
CTRIA3   5586    1       3018    3053    3017    0.
CTRIA3   5587    1       3051    3017    3053    0.
CTRIA3   5588    1       3053    3052    3051    0.
CTRIA3   5589    1       3049    3051    3052    0.
CTRIA3   5590    1       3052    3040    3049    0.
CTRIA3   5591    1       3017    3051    3016    0.
CTRIA3   5592    1       3050    3016    3051    0.
CTRIA3   5593    1       3051    3049    3050    0.
CTRIA3   5594    1       3016    3050    3015    0.
CTRIA3   5595    1       3025    3056    3026    0.
CTRIA3   5596    1       3054    3026    3056    0.
CTRIA3   5597    1       3056    3055    3054    0.
CTRIA3   5598    1       3052    3054    3055    0.
CTRIA3   5599    1       3055    3040    3052    0.
CTRIA3   5600    1       3026    3054    3027    0.
CTRIA3   5601    1       3053    3027    3054    0.
CTRIA3   5602    1       3054    3052    3053    0.
CTRIA3   5603    1       3027    3053    3018    0.
CTRIA3   5604    1       3022    3042    3023    0.
CTRIA3   5605    1       3057    3023    3042    0.
CTRIA3   5606    1       3042    3041    3057    0.
CTRIA3   5607    1       3055    3057    3041    0.
CTRIA3   5608    1       3041    3040    3055    0.
CTRIA3   5609    1       3056    3024    3057    0.
CTRIA3   5610    1       3057    3055    3056    0.
CTRIA3   5611    1       3024    3056    3025    0.
CTRIA3   5612    1       3019    2901    2849    0.
CTRIA3   5613    1       2851    2901    3019    0.
CTRIA3   5614    1       3022    3023    3062    0.
CTRIA3   5615    1       3060    3062    3023    0.
CTRIA3   5616    1       3062    3060    3061    0.
CTRIA3   5617    1       3058    3061    3060    0.
CTRIA3   5618    1       3061    3058    1880    0.
CTRIA3   5619    1       3059    3060    3024    0.
CTRIA3   5620    1       3060    3059    3058    0.
CTRIA3   5621    1       3024    3025    3059    0.
CTRIA3   5622    1       3063    2409    2164    0.
CTRIA3   5623    1       2409    3063    2408    0.
CTRIA3   5624    1       3061    2408    3063    0.
CTRIA3   5625    1       2408    3061    1880    0.
CTRIA3   5626    1       2164    2163    3063    0.
CTRIA3   5627    1       3062    3063    2163    0.
CTRIA3   5628    1       3063    3062    3061    0.
CTRIA3   5629    1       2163    3022    3062    0.
CTRIA3   5630    1       3022    2163    2908    0.
CTRIA3   5631    1       2855    3022    2908    0.
CTRIA3   5632    1       2814    2823    2815    0.
CTRIA3   5633    1       3018    3030    3064    0.
CTRIA3   5634    1       3072    3064    3030    0.
CTRIA3   5635    1       3030    3029    3072    0.
CTRIA3   5636    1       3070    3072    3029    0.
CTRIA3   5637    1       3029    3028    3070    0.
CTRIA3   5638    1       3064    3072    3065    0.
CTRIA3   5639    1       3071    3065    3072    0.
CTRIA3   5640    1       3072    3070    3071    0.
CTRIA3   5641    1       3065    3071    3066    0.
CTRIA3   5642    1       2816    3075    2815    0.
CTRIA3   5643    1       3073    2815    3075    0.
CTRIA3   5644    1       3075    3074    3073    0.
CTRIA3   5645    1       3036    3073    3074    0.
CTRIA3   5646    1       3074    3028    3036    0.
CTRIA3   5647    1       2815    3073    2814    0.
CTRIA3   5648    1       2828    2814    3073    0.
CTRIA3   5649    1       3073    3036    2828    0.
CTRIA3   5650    1       3066    3071    3067    0.
CTRIA3   5651    1       3076    3067    3071    0.
CTRIA3   5652    1       3071    3070    3076    0.
CTRIA3   5653    1       3074    3076    3070    0.
CTRIA3   5654    1       3070    3028    3074    0.
CTRIA3   5655    1       3075    2817    3076    0.
CTRIA3   5656    1       3076    3074    3075    0.
CTRIA3   5657    1       2817    3075    2816    0.
CTRIA3   5658    1       3066    2832    3068    0.
CTRIA3   5659    1       2830    3068    2832    0.
CTRIA3   5660    1       2832    3067    2833    0.
CTRIA3   5661    1       3067    2832    3066    0.
CTRIA3   5662    1       3025    3078    3069    0.
CTRIA3   5663    1       3011    3069    3078    0.
CTRIA3   5664    1       3078    3077    3011    0.
CTRIA3   5665    1       3005    3011    3077    0.
CTRIA3   5666    1       3077    3010    3005    0.
CTRIA3   5667    1       3018    3081    3027    0.
CTRIA3   5668    1       3079    3027    3081    0.
CTRIA3   5669    1       3081    3080    3079    0.
CTRIA3   5670    1       3077    3079    3080    0.
CTRIA3   5671    1       3080    3010    3077    0.
CTRIA3   5672    1       3027    3079    3026    0.
CTRIA3   5673    1       3078    3026    3079    0.
CTRIA3   5674    1       3079    3077    3078    0.
CTRIA3   5675    1       3026    3078    3025    0.
CTRIA3   5676    1       3066    3084    3065    0.
CTRIA3   5677    1       3082    3065    3084    0.
CTRIA3   5678    1       3084    3083    3082    0.
CTRIA3   5679    1       3080    3082    3083    0.
CTRIA3   5680    1       3083    3010    3080    0.
CTRIA3   5681    1       3065    3082    3064    0.
CTRIA3   5682    1       3081    3064    3082    0.
CTRIA3   5683    1       3082    3080    3081    0.
CTRIA3   5684    1       3064    3081    3018    0.
CTRIA3   5685    1       3083    3012    3007    0.
CTRIA3   5686    1       3007    3010    3083    0.
CTRIA3   5687    1       3084    3068    3012    0.
CTRIA3   5688    1       3012    3083    3084    0.
CTRIA3   5689    1       3068    3084    3066    0.
CTRIA3   5690    1       3058    3013    1883    0.
CTRIA3   5691    1       1883    1880    3058    0.
CTRIA3   5692    1       3059    3069    3013    0.
CTRIA3   5693    1       3013    3058    3059    0.
CTRIA3   5694    1       3069    3059    3025    0.
CTRIA3   5695    1       3068    3085    3012    0.
CTRIA3   5696    1       3085    2818    3012    0.
CTRIA3   5697    1       2818    3085    2830    0.
CTRIA3   5698    1       3085    3068    2830    0.
CTRIA3   5699    1       3000    3086    3011    0.
CTRIA3   5700    1       3086    3069    3011    0.
CTRIA3   5701    1       3069    3086    3013    0.
CTRIA3   5702    1       3086    3000    3013    0.
CTRIA3   5703    1       3023    3087    3060    0.
CTRIA3   5704    1       3087    3024    3060    0.
CTRIA3   5705    1       3024    3087    3057    0.
CTRIA3   5706    1       3087    3023    3057    0.
CTRIA3   5707    1       3020    3088    3048    0.
CTRIA3   5708    1       3088    3021    3048    0.
CTRIA3   5709    1       3021    3088    3039    0.
CTRIA3   5710    1       3088    3020    3039    0.
CTRIA3   5711    1       3014    3089    3034    0.
CTRIA3   5712    1       3089    2844    3034    0.
CTRIA3   5713    1       2844    3089    2885    0.
CTRIA3   5714    1       3089    3014    2885    0.
CTRIA3   5715    1       2817    3090    3076    0.
CTRIA3   5716    1       3090    3067    3076    0.
CTRIA3   5717    1       3067    3090    2833    0.
CTRIA3   5718    1       3090    2817    2833    0.
CTRIA3   5719    1       509     665     3092   -2.528-7
CTRIA3   5720    1       3092    665     510     30.1876
CTRIA3   5721    1       510     696     3092    0.
CTRIA3   5722    1       3092    696     509     0.
CTRIA3   5723    1       932     3094    1226    0.
CTRIA3   5724    1       3094    933     1226    0.
CTRIA3   5725    1       932     1180    3094    0.
CTRIA3   5726    1       3094    1180    933     0.
CTRIA3   5727    1       897     1110    3093    0.
CTRIA3   5728    1       3093    1110    896     0.
CTRIA3   5729    1       896     1091    3093    0.
CTRIA3   5730    1       3093    1091    897     0.
CTRIA3   5731    1       525     712     3091    0.
CTRIA3   5732    1       3091    712     526     0.
CTRIA3   5733    1       526     730     3091    0.
CTRIA3   5734    1       3091    730     525     0.
CTRIA3   5735    1       1311    1468    3096    0.
CTRIA3   5736    1       3096    1468    1312    0.
CTRIA3   5737    1       1312    1485    3096    0.
CTRIA3   5738    1       3096    1485    1311    0.
CTRIA3   5739    1       1723    3095    2026    0.
CTRIA3   5740    1       3095    1724    2026    0.
CTRIA3   5741    1       1723    1980    3095    0.
CTRIA3   5742    1       3095    1980    1724    0.
$ Elements and Element Properties for region : pshellr.2
PSHELL   2       1       .15     1               1
$ Pset: "pshellr.2" will be imported as: "pshell.2"
CTRIA3   10001   2       10016   10015   10013   0.
CTRIA3   10002   2       10012   10013   10015   0.
CTRIA3   10003   2       10015   10014   10012   0.
CTRIA3   10004   2       10008   10012   10014   0.
CTRIA3   10005   2       10014   10007   10008   0.
CTRIA3   10006   2       10013   10012   10011   0.
CTRIA3   10007   2       10009   10011   10012   0.
CTRIA3   10008   2       10012   10008   10009   0.
CTRIA3   10009   2       10011   10009   10010   0.
CTRIA3   10010   2       10004   10019   10005   0.
CTRIA3   10011   2       10017   10005   10019   0.
CTRIA3   10012   2       10019   10018   10017   0.
CTRIA3   10013   2       10010   10009   10022   0.
CTRIA3   10014   2       10021   10022   10009   0.
CTRIA3   10015   2       10009   10008   10021   0.
CTRIA3   10016   2       10018   10021   10008   0.
CTRIA3   10017   2       10008   10007   10018   0.
CTRIA3   10018   2       10022   10021   10020   0.
CTRIA3   10019   2       10019   10020   10021   0.
CTRIA3   10020   2       10021   10018   10019   0.
CTRIA3   10021   2       10020   10019   10004   0.
CTRIA3   10022   2       10035   10034   10032   0.
CTRIA3   10023   2       10031   10032   10034   0.
CTRIA3   10024   2       10034   10033   10031   0.
CTRIA3   10025   2       10027   10031   10033   0.
CTRIA3   10026   2       10033   10026   10027   0.
CTRIA3   10027   2       10032   10031   10030   0.
CTRIA3   10028   2       10028   10030   10031   0.
CTRIA3   10029   2       10031   10027   10028   0.
CTRIA3   10030   2       10030   10028   10029   0.
CTRIA3   10031   2       10051   10050   10048   0.
CTRIA3   10032   2       10001   10040   10038   0.
CTRIA3   10033   2       10037   10038   10040   0.
CTRIA3   10034   2       10040   10039   10037   0.
CTRIA3   10035   2       10033   10037   10039   0.
CTRIA3   10036   2       10039   10026   10033   0.
CTRIA3   10037   2       10038   10037   10036   0.
CTRIA3   10038   2       10034   10036   10037   0.
CTRIA3   10039   2       10037   10033   10034   0.
CTRIA3   10040   2       10036   10034   10035   0.
CTRIA3   10041   2       10040   10006   10041   0.
CTRIA3   10042   2       10041   10039   10040   0.
CTRIA3   10043   2       10006   10040   10001   0.
CTRIA3   10044   2       10047   10048   10050   0.
CTRIA3   10045   2       10050   10049   10047   0.
CTRIA3   10046   2       10043   10047   10049   0.
CTRIA3   10047   2       10049   10042   10043   0.
CTRIA3   10048   2       10048   10047   10046   0.
CTRIA3   10049   2       10044   10046   10047   0.
CTRIA3   10050   2       10047   10043   10044   0.
CTRIA3   10051   2       10046   10044   10045   0.
CTRIA3   10052   2       10010   10056   10054   0.
CTRIA3   10053   2       10053   10054   10056   0.
CTRIA3   10054   2       10056   10055   10053   0.
CTRIA3   10055   2       10049   10053   10055   0.
CTRIA3   10056   2       10055   10042   10049   0.
CTRIA3   10057   2       10054   10053   10052   0.
CTRIA3   10058   2       10050   10052   10053   0.
CTRIA3   10059   2       10053   10049   10050   0.
CTRIA3   10060   2       10052   10050   10051   0.
CTRIA3   10061   2       10004   10059   10020   0.
CTRIA3   10062   2       10057   10020   10059   0.
CTRIA3   10063   2       10059   10058   10057   0.
CTRIA3   10064   2       10055   10057   10058   0.
CTRIA3   10065   2       10058   10042   10055   0.
CTRIA3   10066   2       10020   10057   10022   0.
CTRIA3   10067   2       10056   10022   10057   0.
CTRIA3   10068   2       10057   10055   10056   0.
CTRIA3   10069   2       10022   10056   10010   0.
CTRIA3   10070   2       10001   10062   10002   0.
CTRIA3   10071   2       10060   10002   10062   0.
CTRIA3   10072   2       10062   10061   10060   0.
CTRIA3   10073   2       10058   10060   10061   0.
CTRIA3   10074   2       10061   10042   10058   0.
CTRIA3   10075   2       10002   10060   10003   0.
CTRIA3   10076   2       10059   10003   10060   0.
CTRIA3   10077   2       10060   10058   10059   0.
CTRIA3   10078   2       10003   10059   10004   0.
CTRIA3   10079   2       10035   10065   10036   0.
CTRIA3   10080   2       10063   10036   10065   0.
CTRIA3   10081   2       10065   10064   10063   0.
CTRIA3   10082   2       10061   10063   10064   0.
CTRIA3   10083   2       10064   10042   10061   0.
CTRIA3   10084   2       10036   10063   10038   0.
CTRIA3   10085   2       10062   10038   10063   0.
CTRIA3   10086   2       10063   10061   10062   0.
CTRIA3   10087   2       10038   10062   10001   0.
CTRIA3   10088   2       10045   10044   10068   0.
CTRIA3   10089   2       10067   10068   10044   0.
CTRIA3   10090   2       10044   10043   10067   0.
CTRIA3   10091   2       10064   10067   10043   0.
CTRIA3   10092   2       10043   10042   10064   0.
CTRIA3   10093   2       10068   10067   10066   0.
CTRIA3   10094   2       10065   10066   10067   0.
CTRIA3   10095   2       10067   10064   10065   0.
CTRIA3   10096   2       10066   10065   10035   0.
CTRIA3   10100   2       10070   10074   10076   0.
CTRIA3   10101   2       10076   10069   10070   0.
CTRIA3   10103   2       10071   10073   10074   0.
CTRIA3   10104   2       10074   10070   10071   0.
CTRIA3   10105   2       10073   10071   10072   0.
CTRIA3   10110   2       10082   10069   10076   0.
CTRIA3   10115   2       10016   10086   10024   0.
CTRIA3   10116   2       10084   10024   10086   0.
CTRIA3   10117   2       10086   10085   10084   0.
CTRIA3   10118   2       10082   10084   10085   0.
CTRIA3   10119   2       10085   10069   10082   0.
CTRIA3   10124   2       10010   10089   10011   0.
CTRIA3   10125   2       10087   10011   10089   0.
CTRIA3   10126   2       10089   10088   10087   0.
CTRIA3   10127   2       10085   10087   10088   0.
CTRIA3   10128   2       10088   10069   10085   0.
CTRIA3   10129   2       10011   10087   10013   0.
CTRIA3   10130   2       10086   10013   10087   0.
CTRIA3   10131   2       10087   10085   10086   0.
CTRIA3   10132   2       10013   10086   10016   0.
CTRIA3   10133   2       10051   10092   10052   0.
CTRIA3   10134   2       10090   10052   10092   0.
CTRIA3   10135   2       10092   10091   10090   0.
CTRIA3   10136   2       10088   10090   10091   0.
CTRIA3   10137   2       10091   10069   10088   0.
CTRIA3   10138   2       10052   10090   10054   0.
CTRIA3   10139   2       10089   10054   10090   0.
CTRIA3   10140   2       10090   10088   10089   0.
CTRIA3   10141   2       10054   10089   10010   0.
CTRIA3   10142   2       10072   10071   10095   0.
CTRIA3   10143   2       10094   10095   10071   0.
CTRIA3   10144   2       10071   10070   10094   0.
CTRIA3   10145   2       10091   10094   10070   0.
CTRIA3   10146   2       10070   10069   10091   0.
CTRIA3   10147   2       10095   10094   10093   0.
CTRIA3   10148   2       10092   10093   10094   0.
CTRIA3   10149   2       10094   10091   10092   0.
CTRIA3   10150   2       10093   10092   10051   0.
CTRIA3   10178   2       10126   10125   10123   0.
CTRIA3   10179   2       10122   10123   10125   0.
CTRIA3   10180   2       10125   10124   10122   0.
CTRIA3   10181   2       10118   10122   10124   0.
CTRIA3   10182   2       10124   10117   10118   0.
CTRIA3   10183   2       10123   10122   10121   0.
CTRIA3   10184   2       10119   10121   10122   0.
CTRIA3   10185   2       10122   10118   10119   0.
CTRIA3   10186   2       10121   10119   10120   0.
CTRIA3   10187   2       10156   10155   10153   0.
CTRIA3   10188   2       10045   10131   10129   0.
CTRIA3   10189   2       10128   10129   10131   0.
CTRIA3   10190   2       10131   10130   10128   0.
CTRIA3   10191   2       10124   10128   10130   0.
CTRIA3   10192   2       10130   10117   10124   0.
CTRIA3   10193   2       10129   10128   10127   0.
CTRIA3   10194   2       10125   10127   10128   0.
CTRIA3   10195   2       10128   10124   10125   0.
CTRIA3   10196   2       10127   10125   10126   0.
CTRIA3   10197   2       10035   10134   10066   0.
CTRIA3   10198   2       10132   10066   10134   0.
CTRIA3   10199   2       10134   10133   10132   0.
CTRIA3   10200   2       10130   10132   10133   0.
CTRIA3   10201   2       10133   10117   10130   0.
CTRIA3   10202   2       10066   10132   10068   0.
CTRIA3   10203   2       10131   10068   10132   0.
CTRIA3   10204   2       10132   10130   10131   0.
CTRIA3   10205   2       10068   10131   10045   0.
CTRIA3   10206   2       10029   10137   10030   0.
CTRIA3   10207   2       10135   10030   10137   0.
CTRIA3   10208   2       10137   10136   10135   0.
CTRIA3   10209   2       10133   10135   10136   0.
CTRIA3   10210   2       10136   10117   10133   0.
CTRIA3   10211   2       10030   10135   10032   0.
CTRIA3   10212   2       10134   10032   10135   0.
CTRIA3   10213   2       10135   10133   10134   0.
CTRIA3   10214   2       10032   10134   10035   0.
CTRIA3   10215   2       10143   10142   10140   0.
CTRIA3   10216   2       10139   10140   10142   0.
CTRIA3   10217   2       10142   10141   10139   0.
CTRIA3   10218   2       10136   10139   10141   0.
CTRIA3   10219   2       10141   10117   10136   0.
CTRIA3   10220   2       10140   10139   10138   0.
CTRIA3   10221   2       10137   10138   10139   0.
CTRIA3   10222   2       10139   10136   10137   0.
CTRIA3   10223   2       10138   10137   10029   0.
CTRIA3   10224   2       10120   10119   10146   0.
CTRIA3   10225   2       10145   10146   10119   0.
CTRIA3   10226   2       10119   10118   10145   0.
CTRIA3   10227   2       10141   10145   10118   0.
CTRIA3   10228   2       10118   10117   10141   0.
CTRIA3   10229   2       10146   10145   10144   0.
CTRIA3   10230   2       10142   10144   10145   0.
CTRIA3   10231   2       10145   10141   10142   0.
CTRIA3   10232   2       10144   10142   10143   0.
CTRIA3   10233   2       10152   10153   10155   0.
CTRIA3   10234   2       10155   10154   10152   0.
CTRIA3   10235   2       10148   10152   10154   0.
CTRIA3   10236   2       10154   10147   10148   0.
CTRIA3   10237   2       10153   10152   10151   0.
CTRIA3   10238   2       10149   10151   10152   0.
CTRIA3   10239   2       10152   10148   10149   0.
CTRIA3   10240   2       10151   10149   10150   0.
CTRIA3   10241   2       10072   10161   10159   0.
CTRIA3   10242   2       10158   10159   10161   0.
CTRIA3   10243   2       10161   10160   10158   0.
CTRIA3   10244   2       10154   10158   10160   0.
CTRIA3   10245   2       10160   10147   10154   0.
CTRIA3   10246   2       10159   10158   10157   0.
CTRIA3   10247   2       10155   10157   10158   0.
CTRIA3   10248   2       10158   10154   10155   0.
CTRIA3   10249   2       10157   10155   10156   0.
CTRIA3   10250   2       10051   10164   10093   0.
CTRIA3   10251   2       10162   10093   10164   0.
CTRIA3   10252   2       10164   10163   10162   0.
CTRIA3   10253   2       10160   10162   10163   0.
CTRIA3   10254   2       10163   10147   10160   0.
CTRIA3   10255   2       10093   10162   10095   0.
CTRIA3   10256   2       10161   10095   10162   0.
CTRIA3   10257   2       10162   10160   10161   0.
CTRIA3   10258   2       10095   10161   10072   0.
CTRIA3   10259   2       10045   10167   10046   0.
CTRIA3   10260   2       10165   10046   10167   0.
CTRIA3   10261   2       10167   10166   10165   0.
CTRIA3   10262   2       10163   10165   10166   0.
CTRIA3   10263   2       10166   10147   10163   0.
CTRIA3   10264   2       10046   10165   10048   0.
CTRIA3   10265   2       10164   10048   10165   0.
CTRIA3   10266   2       10165   10163   10164   0.
CTRIA3   10267   2       10048   10164   10051   0.
CTRIA3   10268   2       10126   10170   10127   0.
CTRIA3   10269   2       10168   10127   10170   0.
CTRIA3   10270   2       10170   10169   10168   0.
CTRIA3   10271   2       10166   10168   10169   0.
CTRIA3   10272   2       10169   10147   10166   0.
CTRIA3   10273   2       10127   10168   10129   0.
CTRIA3   10274   2       10167   10129   10168   0.
CTRIA3   10275   2       10168   10166   10167   0.
CTRIA3   10276   2       10129   10167   10045   0.
CTRIA3   10277   2       10150   10149   10173   0.
CTRIA3   10278   2       10172   10173   10149   0.
CTRIA3   10279   2       10149   10148   10172   0.
CTRIA3   10280   2       10169   10172   10148   0.
CTRIA3   10281   2       10148   10147   10169   0.
CTRIA3   10282   2       10173   10172   10171   0.
CTRIA3   10283   2       10170   10171   10172   0.
CTRIA3   10284   2       10172   10169   10170   0.
CTRIA3   10285   2       10171   10170   10126   0.
CTRIA3   10286   2       10183   10182   10180   0.
CTRIA3   10287   2       10179   10180   10182   0.
CTRIA3   10288   2       10182   10181   10179   0.
CTRIA3   10289   2       10175   10179   10181   0.
CTRIA3   10291   2       10180   10179   10178   0.
CTRIA3   10292   2       10176   10178   10179   0.
CTRIA3   10293   2       10179   10175   10176   0.
CTRIA3   10294   2       10178   10176   10177   0.
CTRIA3   10303   2       10184   10182   10183   0.
CTRIA3   10313   2       10072   10194   10073   0.
CTRIA3   10322   2       10156   10197   10157   0.
CTRIA3   10323   2       10195   10157   10197   0.
CTRIA3   10324   2       10197   10196   10195   0.
CTRIA3   10327   2       10157   10195   10159   0.
CTRIA3   10328   2       10194   10159   10195   0.
CTRIA3   10330   2       10159   10194   10072   0.
CTRIA3   10331   2       10177   10176   10200   0.
CTRIA3   10332   2       10199   10200   10176   0.
CTRIA3   10333   2       10176   10175   10199   0.
CTRIA3   10334   2       10196   10199   10175   0.
CTRIA3   10336   2       10200   10199   10198   0.
CTRIA3   10337   2       10197   10198   10199   0.
CTRIA3   10338   2       10199   10196   10197   0.
CTRIA3   10339   2       10198   10197   10156   0.
CTRIA3   10340   2       10210   10209   10207   0.
CTRIA3   10341   2       10206   10207   10209   0.
CTRIA3   10342   2       10209   10208   10206   0.
CTRIA3   10343   2       10202   10206   10208   0.
CTRIA3   10345   2       10207   10206   10205   0.
CTRIA3   10346   2       10203   10205   10206   0.
CTRIA3   10347   2       10206   10202   10203   0.
CTRIA3   10348   2       10205   10203   10204   0.
CTRIA3   10357   2       10211   10209   10210   0.
CTRIA3   10376   2       10183   10224   10184   0.
CTRIA3   10385   2       10204   10203   10227   0.
CTRIA3   10386   2       10226   10227   10203   0.
CTRIA3   10387   2       10203   10202   10226   0.
CTRIA3   10388   2       10223   10226   10202   0.
CTRIA3   10390   2       10227   10226   10225   0.
CTRIA3   10391   2       10224   10225   10226   0.
CTRIA3   10392   2       10226   10223   10224   0.
CTRIA3   10393   2       10225   10224   10183   0.
CTRIA3   10394   2       10229   10232   10233   0.
CTRIA3   10396   2       10232   10229   10230   0.
CTRIA3   10397   2       10210   10238   10211   0.
CTRIA3   10406   2       10231   10230   10241   0.
CTRIA3   10407   2       10240   10241   10230   0.
CTRIA3   10408   2       10230   10229   10240   0.
CTRIA3   10409   2       10237   10240   10229   0.
CTRIA3   10411   2       10241   10240   10239   0.
CTRIA3   10412   2       10238   10239   10240   0.
CTRIA3   10413   2       10240   10237   10238   0.
CTRIA3   10414   2       10239   10238   10210   0.
CTRIA3   10415   2       10251   10250   10248   0.
CTRIA3   10416   2       10247   10248   10250   0.
CTRIA3   10417   2       10250   10249   10247   0.
CTRIA3   10418   2       10243   10247   10249   0.
CTRIA3   10419   2       10249   10242   10243   0.
CTRIA3   10420   2       10248   10247   10246   0.
CTRIA3   10421   2       10244   10246   10247   0.
CTRIA3   10422   2       10247   10243   10244   0.
CTRIA3   10423   2       10246   10244   10245   0.
CTRIA3   10424   2       10269   10268   10266   0.
CTRIA3   10425   2       10120   10256   10254   0.
CTRIA3   10426   2       10253   10254   10256   0.
CTRIA3   10427   2       10256   10255   10253   0.
CTRIA3   10428   2       10249   10253   10255   0.
CTRIA3   10429   2       10255   10242   10249   0.
CTRIA3   10430   2       10254   10253   10252   0.
CTRIA3   10431   2       10250   10252   10253   0.
CTRIA3   10432   2       10253   10249   10250   0.
CTRIA3   10433   2       10252   10250   10251   0.
CTRIA3   10434   2       10143   10259   10144   0.
CTRIA3   10435   2       10257   10144   10259   0.
CTRIA3   10436   2       10259   10258   10257   0.
CTRIA3   10437   2       10255   10257   10258   0.
CTRIA3   10438   2       10258   10242   10255   0.
CTRIA3   10439   2       10144   10257   10146   0.
CTRIA3   10440   2       10256   10146   10257   0.
CTRIA3   10441   2       10257   10255   10256   0.
CTRIA3   10442   2       10146   10256   10120   0.
CTRIA3   10443   2       10265   10266   10268   0.
CTRIA3   10444   2       10268   10267   10265   0.
CTRIA3   10445   2       10261   10265   10267   0.
CTRIA3   10446   2       10267   10260   10261   0.
CTRIA3   10447   2       10266   10265   10264   0.
CTRIA3   10448   2       10262   10264   10265   0.
CTRIA3   10449   2       10265   10261   10262   0.
CTRIA3   10450   2       10264   10262   10263   0.
CTRIA3   10451   2       10150   10274   10272   0.
CTRIA3   10452   2       10271   10272   10274   0.
CTRIA3   10453   2       10274   10273   10271   0.
CTRIA3   10454   2       10267   10271   10273   0.
CTRIA3   10455   2       10273   10260   10267   0.
CTRIA3   10456   2       10272   10271   10270   0.
CTRIA3   10457   2       10268   10270   10271   0.
CTRIA3   10458   2       10271   10267   10268   0.
CTRIA3   10459   2       10270   10268   10269   0.
CTRIA3   10460   2       10126   10277   10171   0.
CTRIA3   10461   2       10275   10171   10277   0.
CTRIA3   10462   2       10277   10276   10275   0.
CTRIA3   10463   2       10273   10275   10276   0.
CTRIA3   10464   2       10276   10260   10273   0.
CTRIA3   10465   2       10171   10275   10173   0.
CTRIA3   10466   2       10274   10173   10275   0.
CTRIA3   10467   2       10275   10273   10274   0.
CTRIA3   10468   2       10173   10274   10150   0.
CTRIA3   10469   2       10120   10280   10121   0.
CTRIA3   10470   2       10278   10121   10280   0.
CTRIA3   10471   2       10280   10279   10278   0.
CTRIA3   10472   2       10276   10278   10279   0.
CTRIA3   10473   2       10279   10260   10276   0.
CTRIA3   10474   2       10121   10278   10123   0.
CTRIA3   10475   2       10277   10123   10278   0.
CTRIA3   10476   2       10278   10276   10277   0.
CTRIA3   10477   2       10123   10277   10126   0.
CTRIA3   10478   2       10251   10283   10252   0.
CTRIA3   10479   2       10281   10252   10283   0.
CTRIA3   10480   2       10283   10282   10281   0.
CTRIA3   10481   2       10279   10281   10282   0.
CTRIA3   10482   2       10282   10260   10279   0.
CTRIA3   10483   2       10252   10281   10254   0.
CTRIA3   10484   2       10280   10254   10281   0.
CTRIA3   10485   2       10281   10279   10280   0.
CTRIA3   10486   2       10254   10280   10120   0.
CTRIA3   10487   2       10263   10262   10286   0.
CTRIA3   10488   2       10285   10286   10262   0.
CTRIA3   10489   2       10262   10261   10285   0.
CTRIA3   10490   2       10282   10285   10261   0.
CTRIA3   10491   2       10261   10260   10282   0.
CTRIA3   10492   2       10286   10285   10284   0.
CTRIA3   10493   2       10283   10284   10285   0.
CTRIA3   10494   2       10285   10282   10283   0.
CTRIA3   10495   2       10284   10283   10251   0.
CTRIA3   10496   2       10296   10295   10293   0.
CTRIA3   10497   2       10292   10293   10295   0.
CTRIA3   10498   2       10295   10294   10292   0.
CTRIA3   10499   2       10288   10292   10294   0.
CTRIA3   10500   2       10294   10287   10288   0.
CTRIA3   10501   2       10293   10292   10291   0.
CTRIA3   10502   2       10289   10291   10292   0.
CTRIA3   10503   2       10292   10288   10289   0.
CTRIA3   10504   2       10291   10289   10290   0.
CTRIA3   10505   2       10177   10301   10299   0.
CTRIA3   10506   2       10298   10299   10301   0.
CTRIA3   10507   2       10301   10300   10298   0.
CTRIA3   10508   2       10294   10298   10300   0.
CTRIA3   10509   2       10300   10287   10294   0.
CTRIA3   10510   2       10299   10298   10297   0.
CTRIA3   10511   2       10295   10297   10298   0.
CTRIA3   10512   2       10298   10294   10295   0.
CTRIA3   10513   2       10297   10295   10296   0.
CTRIA3   10514   2       10156   10304   10198   0.
CTRIA3   10515   2       10302   10198   10304   0.
CTRIA3   10516   2       10304   10303   10302   0.
CTRIA3   10517   2       10300   10302   10303   0.
CTRIA3   10518   2       10303   10287   10300   0.
CTRIA3   10519   2       10198   10302   10200   0.
CTRIA3   10520   2       10301   10200   10302   0.
CTRIA3   10521   2       10302   10300   10301   0.
CTRIA3   10522   2       10200   10301   10177   0.
CTRIA3   10523   2       10150   10307   10151   0.
CTRIA3   10524   2       10305   10151   10307   0.
CTRIA3   10525   2       10307   10306   10305   0.
CTRIA3   10526   2       10303   10305   10306   0.
CTRIA3   10527   2       10306   10287   10303   0.
CTRIA3   10528   2       10151   10305   10153   0.
CTRIA3   10529   2       10304   10153   10305   0.
CTRIA3   10530   2       10305   10303   10304   0.
CTRIA3   10531   2       10153   10304   10156   0.
CTRIA3   10532   2       10269   10310   10270   0.
CTRIA3   10533   2       10308   10270   10310   0.
CTRIA3   10534   2       10310   10309   10308   0.
CTRIA3   10535   2       10306   10308   10309   0.
CTRIA3   10536   2       10309   10287   10306   0.
CTRIA3   10537   2       10270   10308   10272   0.
CTRIA3   10538   2       10307   10272   10308   0.
CTRIA3   10539   2       10308   10306   10307   0.
CTRIA3   10540   2       10272   10307   10150   0.
CTRIA3   10541   2       10290   10289   10313   0.
CTRIA3   10542   2       10312   10313   10289   0.
CTRIA3   10543   2       10289   10288   10312   0.
CTRIA3   10544   2       10309   10312   10288   0.
CTRIA3   10545   2       10288   10287   10309   0.
CTRIA3   10546   2       10313   10312   10311   0.
CTRIA3   10547   2       10310   10311   10312   0.
CTRIA3   10548   2       10312   10309   10310   0.
CTRIA3   10549   2       10311   10310   10269   0.
CTRIA3   10550   2       10323   10322   10320   0.
CTRIA3   10551   2       10319   10320   10322   0.
CTRIA3   10552   2       10322   10321   10319   0.
CTRIA3   10553   2       10315   10319   10321   0.
CTRIA3   10554   2       10321   10314   10315   0.
CTRIA3   10555   2       10320   10319   10318   0.
CTRIA3   10556   2       10316   10318   10319   0.
CTRIA3   10557   2       10319   10315   10316   0.
CTRIA3   10558   2       10318   10316   10317   0.
CTRIA3   10559   2       10204   10328   10326   0.
CTRIA3   10560   2       10325   10326   10328   0.
CTRIA3   10561   2       10328   10327   10325   0.
CTRIA3   10562   2       10321   10325   10327   0.
CTRIA3   10563   2       10327   10314   10321   0.
CTRIA3   10564   2       10326   10325   10324   0.
CTRIA3   10565   2       10322   10324   10325   0.
CTRIA3   10566   2       10325   10321   10322   0.
CTRIA3   10567   2       10324   10322   10323   0.
CTRIA3   10568   2       10183   10331   10225   0.
CTRIA3   10569   2       10329   10225   10331   0.
CTRIA3   10570   2       10331   10330   10329   0.
CTRIA3   10571   2       10327   10329   10330   0.
CTRIA3   10572   2       10330   10314   10327   0.
CTRIA3   10573   2       10225   10329   10227   0.
CTRIA3   10574   2       10328   10227   10329   0.
CTRIA3   10575   2       10329   10327   10328   0.
CTRIA3   10576   2       10227   10328   10204   0.
CTRIA3   10577   2       10177   10334   10178   0.
CTRIA3   10578   2       10332   10178   10334   0.
CTRIA3   10579   2       10334   10333   10332   0.
CTRIA3   10580   2       10330   10332   10333   0.
CTRIA3   10581   2       10333   10314   10330   0.
CTRIA3   10582   2       10178   10332   10180   0.
CTRIA3   10583   2       10331   10180   10332   0.
CTRIA3   10584   2       10332   10330   10331   0.
CTRIA3   10585   2       10180   10331   10183   0.
CTRIA3   10586   2       10296   10337   10297   0.
CTRIA3   10587   2       10335   10297   10337   0.
CTRIA3   10588   2       10337   10336   10335   0.
CTRIA3   10589   2       10333   10335   10336   0.
CTRIA3   10590   2       10336   10314   10333   0.
CTRIA3   10591   2       10297   10335   10299   0.
CTRIA3   10592   2       10334   10299   10335   0.
CTRIA3   10593   2       10335   10333   10334   0.
CTRIA3   10594   2       10299   10334   10177   0.
CTRIA3   10595   2       10317   10316   10340   0.
CTRIA3   10596   2       10339   10340   10316   0.
CTRIA3   10597   2       10316   10315   10339   0.
CTRIA3   10598   2       10336   10339   10315   0.
CTRIA3   10599   2       10315   10314   10336   0.
CTRIA3   10600   2       10340   10339   10338   0.
CTRIA3   10601   2       10337   10338   10339   0.
CTRIA3   10602   2       10339   10336   10337   0.
CTRIA3   10603   2       10338   10337   10296   0.
CTRIA3   10604   2       10344   10341   10342   0.
CTRIA3   10605   2       10347   10346   10345   0.
CTRIA3   10606   2       10344   10345   10346   0.
CTRIA3   10607   2       10346   10341   10344   0.
CTRIA3   10608   2       10210   10350   10239   0.
CTRIA3   10609   2       10348   10239   10350   0.
CTRIA3   10610   2       10350   10349   10348   0.
CTRIA3   10611   2       10346   10348   10349   0.
CTRIA3   10612   2       10349   10341   10346   0.
CTRIA3   10613   2       10239   10348   10241   0.
CTRIA3   10614   2       10347   10241   10348   0.
CTRIA3   10615   2       10348   10346   10347   0.
CTRIA3   10616   2       10241   10347   10231   0.
CTRIA3   10617   2       10204   10353   10205   0.
CTRIA3   10618   2       10351   10205   10353   0.
CTRIA3   10619   2       10353   10352   10351   0.
CTRIA3   10620   2       10349   10351   10352   0.
CTRIA3   10621   2       10352   10341   10349   0.
CTRIA3   10622   2       10205   10351   10207   0.
CTRIA3   10623   2       10350   10207   10351   0.
CTRIA3   10624   2       10351   10349   10350   0.
CTRIA3   10625   2       10207   10350   10210   0.
CTRIA3   10626   2       10323   10356   10324   0.
CTRIA3   10627   2       10354   10324   10356   0.
CTRIA3   10628   2       10356   10355   10354   0.
CTRIA3   10629   2       10352   10354   10355   0.
CTRIA3   10630   2       10355   10341   10352   0.
CTRIA3   10631   2       10324   10354   10326   0.
CTRIA3   10632   2       10353   10326   10354   0.
CTRIA3   10633   2       10354   10352   10353   0.
CTRIA3   10634   2       10326   10353   10204   0.
CTRIA3   10635   2       10358   10359   10343   0.
CTRIA3   10636   2       10343   10342   10358   0.
CTRIA3   10637   2       10355   10358   10342   0.
CTRIA3   10638   2       10342   10341   10355   0.
CTRIA3   10639   2       10359   10358   10357   0.
CTRIA3   10640   2       10356   10357   10358   0.
CTRIA3   10641   2       10358   10355   10356   0.
CTRIA3   10642   2       10357   10356   10323   0.
CTRIA3   10643   2       10369   10368   10366   0.
CTRIA3   10644   2       10365   10366   10368   0.
CTRIA3   10645   2       10368   10367   10365   0.
CTRIA3   10646   2       10361   10365   10367   0.
CTRIA3   10647   2       10367   10360   10361   0.
CTRIA3   10648   2       10366   10365   10364   0.
CTRIA3   10649   2       10362   10364   10365   0.
CTRIA3   10650   2       10365   10361   10362   0.
CTRIA3   10651   2       10364   10362   10363   0.
CTRIA3   10652   2       10399   10398   10396   0.
CTRIA3   10653   2       10263   10374   10372   0.
CTRIA3   10654   2       10371   10372   10374   0.
CTRIA3   10655   2       10374   10373   10371   0.
CTRIA3   10656   2       10367   10371   10373   0.
CTRIA3   10657   2       10373   10360   10367   0.
CTRIA3   10658   2       10372   10371   10370   0.
CTRIA3   10659   2       10368   10370   10371   0.
CTRIA3   10660   2       10371   10367   10368   0.
CTRIA3   10661   2       10370   10368   10369   0.
CTRIA3   10662   2       10251   10377   10284   0.
CTRIA3   10663   2       10375   10284   10377   0.
CTRIA3   10664   2       10377   10376   10375   0.
CTRIA3   10665   2       10373   10375   10376   0.
CTRIA3   10666   2       10376   10360   10373   0.
CTRIA3   10667   2       10284   10375   10286   0.
CTRIA3   10668   2       10374   10286   10375   0.
CTRIA3   10669   2       10375   10373   10374   0.
CTRIA3   10670   2       10286   10374   10263   0.
CTRIA3   10671   2       10245   10380   10246   0.
CTRIA3   10672   2       10378   10246   10380   0.
CTRIA3   10673   2       10380   10379   10378   0.
CTRIA3   10674   2       10376   10378   10379   0.
CTRIA3   10675   2       10379   10360   10376   0.
CTRIA3   10676   2       10246   10378   10248   0.
CTRIA3   10677   2       10377   10248   10378   0.
CTRIA3   10678   2       10378   10376   10377   0.
CTRIA3   10679   2       10248   10377   10251   0.
CTRIA3   10680   2       10386   10385   10383   0.
CTRIA3   10681   2       10382   10383   10385   0.
CTRIA3   10682   2       10385   10384   10382   0.
CTRIA3   10683   2       10379   10382   10384   0.
CTRIA3   10684   2       10384   10360   10379   0.
CTRIA3   10685   2       10383   10382   10381   0.
CTRIA3   10686   2       10380   10381   10382   0.
CTRIA3   10687   2       10382   10379   10380   0.
CTRIA3   10688   2       10381   10380   10245   0.
CTRIA3   10689   2       10363   10362   10389   0.
CTRIA3   10690   2       10388   10389   10362   0.
CTRIA3   10691   2       10362   10361   10388   0.
CTRIA3   10692   2       10384   10388   10361   0.
CTRIA3   10693   2       10361   10360   10384   0.
CTRIA3   10694   2       10389   10388   10387   0.
CTRIA3   10695   2       10385   10387   10388   0.
CTRIA3   10696   2       10388   10384   10385   0.
CTRIA3   10697   2       10387   10385   10386   0.
CTRIA3   10698   2       10395   10396   10398   0.
CTRIA3   10699   2       10398   10397   10395   0.
CTRIA3   10700   2       10391   10395   10397   0.
CTRIA3   10701   2       10397   10390   10391   0.
CTRIA3   10702   2       10396   10395   10394   0.
CTRIA3   10703   2       10392   10394   10395   0.
CTRIA3   10704   2       10395   10391   10392   0.
CTRIA3   10705   2       10394   10392   10393   0.
CTRIA3   10706   2       10290   10404   10402   0.
CTRIA3   10707   2       10401   10402   10404   0.
CTRIA3   10708   2       10404   10403   10401   0.
CTRIA3   10709   2       10397   10401   10403   0.
CTRIA3   10710   2       10403   10390   10397   0.
CTRIA3   10711   2       10402   10401   10400   0.
CTRIA3   10712   2       10398   10400   10401   0.
CTRIA3   10713   2       10401   10397   10398   0.
CTRIA3   10714   2       10400   10398   10399   0.
CTRIA3   10715   2       10269   10407   10311   0.
CTRIA3   10716   2       10405   10311   10407   0.
CTRIA3   10717   2       10407   10406   10405   0.
CTRIA3   10718   2       10403   10405   10406   0.
CTRIA3   10719   2       10406   10390   10403   0.
CTRIA3   10720   2       10311   10405   10313   0.
CTRIA3   10721   2       10404   10313   10405   0.
CTRIA3   10722   2       10405   10403   10404   0.
CTRIA3   10723   2       10313   10404   10290   0.
CTRIA3   10724   2       10263   10410   10264   0.
CTRIA3   10725   2       10408   10264   10410   0.
CTRIA3   10726   2       10410   10409   10408   0.
CTRIA3   10727   2       10406   10408   10409   0.
CTRIA3   10728   2       10409   10390   10406   0.
CTRIA3   10729   2       10264   10408   10266   0.
CTRIA3   10730   2       10407   10266   10408   0.
CTRIA3   10731   2       10408   10406   10407   0.
CTRIA3   10732   2       10266   10407   10269   0.
CTRIA3   10733   2       10369   10413   10370   0.
CTRIA3   10734   2       10411   10370   10413   0.
CTRIA3   10735   2       10413   10412   10411   0.
CTRIA3   10736   2       10409   10411   10412   0.
CTRIA3   10737   2       10412   10390   10409   0.
CTRIA3   10738   2       10370   10411   10372   0.
CTRIA3   10739   2       10410   10372   10411   0.
CTRIA3   10740   2       10411   10409   10410   0.
CTRIA3   10741   2       10372   10410   10263   0.
CTRIA3   10742   2       10393   10392   10416   0.
CTRIA3   10743   2       10415   10416   10392   0.
CTRIA3   10744   2       10392   10391   10415   0.
CTRIA3   10745   2       10412   10415   10391   0.
CTRIA3   10746   2       10391   10390   10412   0.
CTRIA3   10747   2       10416   10415   10414   0.
CTRIA3   10748   2       10413   10414   10415   0.
CTRIA3   10749   2       10415   10412   10413   0.
CTRIA3   10750   2       10414   10413   10369   0.
CTRIA3   10751   2       10425   10424   10422   0.
CTRIA3   10752   2       10421   10422   10424   0.
CTRIA3   10753   2       10424   10423   10421   0.
CTRIA3   10754   2       10418   10421   10423   0.
CTRIA3   10755   2       10423   10417   10418   0.
CTRIA3   10756   2       10422   10421   10420   0.
CTRIA3   10757   2       10421   10418   10419   0.
CTRIA3   10758   2       10317   10430   10428   0.
CTRIA3   10759   2       10427   10428   10430   0.
CTRIA3   10760   2       10430   10429   10427   0.
CTRIA3   10761   2       10423   10427   10429   0.
CTRIA3   10762   2       10429   10417   10423   0.
CTRIA3   10763   2       10428   10427   10426   0.
CTRIA3   10764   2       10424   10426   10427   0.
CTRIA3   10765   2       10427   10423   10424   0.
CTRIA3   10766   2       10426   10424   10425   0.
CTRIA3   10767   2       10296   10433   10338   0.
CTRIA3   10768   2       10431   10338   10433   0.
CTRIA3   10769   2       10433   10432   10431   0.
CTRIA3   10770   2       10429   10431   10432   0.
CTRIA3   10771   2       10432   10417   10429   0.
CTRIA3   10772   2       10338   10431   10340   0.
CTRIA3   10773   2       10430   10340   10431   0.
CTRIA3   10774   2       10431   10429   10430   0.
CTRIA3   10775   2       10340   10430   10317   0.
CTRIA3   10776   2       10290   10436   10291   0.
CTRIA3   10777   2       10434   10291   10436   0.
CTRIA3   10778   2       10436   10435   10434   0.
CTRIA3   10779   2       10432   10434   10435   0.
CTRIA3   10780   2       10435   10417   10432   0.
CTRIA3   10781   2       10291   10434   10293   0.
CTRIA3   10782   2       10433   10293   10434   0.
CTRIA3   10783   2       10434   10432   10433   0.
CTRIA3   10784   2       10293   10433   10296   0.
CTRIA3   10785   2       10399   10439   10400   0.
CTRIA3   10786   2       10437   10400   10439   0.
CTRIA3   10787   2       10439   10438   10437   0.
CTRIA3   10788   2       10435   10437   10438   0.
CTRIA3   10789   2       10438   10417   10435   0.
CTRIA3   10790   2       10400   10437   10402   0.
CTRIA3   10791   2       10436   10402   10437   0.
CTRIA3   10792   2       10437   10435   10436   0.
CTRIA3   10793   2       10402   10436   10290   0.
CTRIA3   10794   2       10441   10442   10419   0.
CTRIA3   10795   2       10419   10418   10441   0.
CTRIA3   10796   2       10438   10441   10418   0.
CTRIA3   10797   2       10418   10417   10438   0.
CTRIA3   10798   2       10442   10441   10440   0.
CTRIA3   10799   2       10439   10440   10441   0.
CTRIA3   10800   2       10441   10438   10439   0.
CTRIA3   10801   2       10440   10439   10399   0.
CTRIA3   10802   2       10323   10446   10357   0.
CTRIA3   10803   2       10444   10357   10446   0.
CTRIA3   10804   2       10446   10445   10444   0.
CTRIA3   10805   2       10357   10444   10359   0.
CTRIA3   10806   2       10317   10449   10318   0.
CTRIA3   10807   2       10447   10318   10449   0.
CTRIA3   10808   2       10449   10448   10447   0.
CTRIA3   10809   2       10445   10447   10448   0.
CTRIA3   10810   2       10448   10443   10445   0.
CTRIA3   10811   2       10318   10447   10320   0.
CTRIA3   10812   2       10446   10320   10447   0.
CTRIA3   10813   2       10447   10445   10446   0.
CTRIA3   10814   2       10320   10446   10323   0.
CTRIA3   10815   2       10425   10452   10426   0.
CTRIA3   10816   2       10450   10426   10452   0.
CTRIA3   10817   2       10452   10451   10450   0.
CTRIA3   10818   2       10448   10450   10451   0.
CTRIA3   10819   2       10451   10443   10448   0.
CTRIA3   10820   2       10426   10450   10428   0.
CTRIA3   10821   2       10449   10428   10450   0.
CTRIA3   10822   2       10450   10448   10449   0.
CTRIA3   10823   2       10428   10449   10317   0.
CTRIA3   10824   2       10456   10018   10007   0.
CTRIA3   10825   2       10456   10017   10018   0.
CTRIA3   10826   2       10457   10039   10041   0.
CTRIA3   10827   2       10457   10026   10039   0.
CTRIA3   10828   2       10230   10231   10458   0.
CTRIA3   10829   2       10232   10230   10458   0.
CTRIA3   10830   2       10421   10419   10420   0.
CTRIA3   10831   2       10459   10420   10419   0.
CTRIA3   10832   2       10442   10459   10419   0.
CTRIA3   10833   2       10461   10465   10464   0.
CTRIA3   10834   2       10465   10461   10460   0.
CTRIA3   10835   2       10464   10462   10461   0.
CTRIA3   10836   2       10363   10389   10470   0.
CTRIA3   10837   2       10468   10470   10389   0.
CTRIA3   10838   2       10470   10468   10469   0.
CTRIA3   10839   2       10466   10469   10468   0.
CTRIA3   10840   2       10469   10466   10460   0.
CTRIA3   10841   2       10389   10387   10468   0.
CTRIA3   10842   2       10467   10468   10387   0.
CTRIA3   10843   2       10468   10467   10466   0.
CTRIA3   10844   2       10387   10386   10467   0.
CTRIA3   10845   2       10463   10453   10462   0.
CTRIA3   10846   2       10471   10462   10453   0.
CTRIA3   10847   2       10462   10471   10461   0.
CTRIA3   10848   2       10469   10461   10471   0.
CTRIA3   10849   2       10461   10469   10460   0.
CTRIA3   10850   2       10453   10454   10471   0.
CTRIA3   10851   2       10470   10471   10454   0.
CTRIA3   10852   2       10471   10470   10469   0.
CTRIA3   10853   2       10454   10363   10470   0.
CTRIA3   10854   2       10475   10473   10472   0.
CTRIA3   10855   2       10478   10476   10477   0.
CTRIA3   10856   2       10475   10477   10476   0.
CTRIA3   10857   2       10477   10475   10472   0.
CTRIA3   10858   2       10363   10454   10481   0.
CTRIA3   10859   2       10479   10481   10454   0.
CTRIA3   10860   2       10481   10479   10480   0.
CTRIA3   10861   2       10477   10480   10479   0.
CTRIA3   10862   2       10480   10477   10472   0.
CTRIA3   10863   2       10454   10453   10479   0.
CTRIA3   10864   2       10478   10479   10453   0.
CTRIA3   10865   2       10479   10478   10477   0.
CTRIA3   10866   2       10453   10463   10478   0.
CTRIA3   10867   2       10369   10366   10484   0.
CTRIA3   10868   2       10482   10484   10366   0.
CTRIA3   10869   2       10484   10482   10483   0.
CTRIA3   10870   2       10480   10483   10482   0.
CTRIA3   10871   2       10483   10480   10472   0.
CTRIA3   10872   2       10366   10364   10482   0.
CTRIA3   10873   2       10481   10482   10364   0.
CTRIA3   10874   2       10482   10481   10480   0.
CTRIA3   10875   2       10364   10363   10481   0.
CTRIA3   10876   2       10393   10416   10487   0.
CTRIA3   10877   2       10485   10487   10416   0.
CTRIA3   10878   2       10487   10485   10486   0.
CTRIA3   10879   2       10483   10486   10485   0.
CTRIA3   10880   2       10486   10483   10472   0.
CTRIA3   10881   2       10416   10414   10485   0.
CTRIA3   10882   2       10484   10485   10414   0.
CTRIA3   10883   2       10485   10484   10483   0.
CTRIA3   10884   2       10414   10369   10484   0.
CTRIA3   10885   2       10488   10474   10489   0.
CTRIA3   10886   2       10474   10488   10473   0.
CTRIA3   10887   2       10486   10473   10488   0.
CTRIA3   10888   2       10473   10486   10472   0.
CTRIA3   10889   2       10489   10455   10488   0.
CTRIA3   10890   2       10487   10488   10455   0.
CTRIA3   10891   2       10488   10487   10486   0.
CTRIA3   10892   2       10455   10393   10487   0.
CTRIA3   10893   2       10393   10455   10493   0.
CTRIA3   10894   2       10491   10493   10455   0.
CTRIA3   10895   2       10493   10491   10492   0.
CTRIA3   10896   2       10455   10489   10491   0.
CTRIA3   10897   2       10399   10396   10496   0.
CTRIA3   10898   2       10494   10496   10396   0.
CTRIA3   10899   2       10496   10494   10495   0.
CTRIA3   10900   2       10492   10495   10494   0.
CTRIA3   10901   2       10495   10492   10490   0.
CTRIA3   10902   2       10396   10394   10494   0.
CTRIA3   10903   2       10493   10494   10394   0.
CTRIA3   10904   2       10494   10493   10492   0.
CTRIA3   10905   2       10394   10393   10493   0.
CTRIA3   10906   2       10459   10442   10499   0.
CTRIA3   10907   2       10497   10499   10442   0.
CTRIA3   10908   2       10499   10497   10498   0.
CTRIA3   10909   2       10495   10498   10497   0.
CTRIA3   10910   2       10498   10495   10490   0.
CTRIA3   10911   2       10442   10440   10497   0.
CTRIA3   10912   2       10496   10497   10440   0.
CTRIA3   10913   2       10497   10496   10495   0.
CTRIA3   10914   2       10440   10399   10496   0.
CTRIA3   10915   2       10462   10500   10463   0.
CTRIA3   10916   2       10464   10500   10462   0.
CQUAD4   10917   2       10464   10465   10501   10502   0.
CQUAD4   10918   2       10233   10232   10503   10504   0.
CQUAD4   10919   2       10232   10458   10505   10503   0.
CQUAD4   10920   2       10458   10231   10506   10505   0.
CQUAD4   10921   2       10231   10347   10507   10506   0.
CQUAD4   10922   2       10347   10345   10508   10507   0.
CQUAD4   10923   2       10345   10344   10509   10508   0.
CQUAD4   10924   2       10344   10342   10510   10509   0.
CQUAD4   10925   2       10342   10343   10511   10510   0.
CQUAD4   10926   2       10343   10359   10512   10511   0.
CQUAD4   10927   2       10359   10444   10513   10512   0.
CQUAD4   10928   2       10444   10445   10514   10513   0.
CQUAD4   10929   2       10445   10443   10515   10514   0.
CQUAD4   10930   2       10443   10451   10516   10515   0.
CQUAD4   10931   2       10451   10452   10517   10516   0.
CQUAD4   10932   2       10452   10425   10518   10517   0.
CQUAD4   10933   2       10425   10422   10519   10518   0.
CQUAD4   10934   2       10422   10420   10520   10519   0.
CQUAD4   10935   2       10420   10459   10521   10520   0.
CQUAD4   10936   2       10459   10499   10522   10521   0.
CQUAD4   10937   2       10499   10498   10523   10522   0.
CQUAD4   10938   2       10498   10490   10524   10523   0.
CQUAD4   10939   2       10490   10492   10525   10524   0.
CQUAD4   10940   2       10492   10491   10526   10525   0.
CQUAD4   10941   2       10491   10489   10527   10526   0.
CQUAD4   10942   2       10489   10474   10528   10527   0.
CQUAD4   10943   2       10474   10473   10529   10528   0.
CQUAD4   10944   2       10473   10475   10530   10529   0.
CQUAD4   10945   2       10475   10476   10531   10530   0.
CQUAD4   10946   2       10476   10478   10532   10531   0.
CQUAD4   10947   2       10478   10463   10533   10532   0.
CQUAD4   10948   2       10463   10500   10534   10533   0.
CQUAD4   10949   2       10500   10464   10502   10534   0.
CTRIA3   10950   2       10544   11370   10543   0.
CTRIA3   10951   2       11368   10543   11370   0.
CTRIA3   10952   2       11370   11369   11368   0.
CTRIA3   10953   2       11366   11368   11369   0.
CTRIA3   10954   2       11369   11365   11366   0.
CTRIA3   10955   2       10543   11368   10542   0.
CTRIA3   10956   2       11367   10542   11368   0.
CTRIA3   10957   2       11368   11366   11367   0.
CTRIA3   10958   2       10542   11367   10541   0.
CTRIA3   10959   2       10538   11372   10539   0.
CTRIA3   10960   2       10545   10539   11372   0.
CTRIA3   10961   2       11372   11371   10545   0.
CTRIA3   10962   2       10541   11367   10547   0.
CTRIA3   10963   2       11373   10547   11367   0.
CTRIA3   10964   2       11367   11366   11373   0.
CTRIA3   10965   2       11371   11373   11366   0.
CTRIA3   10966   2       11366   11365   11371   0.
CTRIA3   10967   2       10547   11373   10546   0.
CTRIA3   10968   2       11372   10546   11373   0.
CTRIA3   10969   2       11373   11371   11372   0.
CTRIA3   10970   2       10546   11372   10538   0.
CTRIA3   10971   2       10551   11376   10550   0.
CTRIA3   10972   2       11374   10550   11376   0.
CTRIA3   10973   2       11376   11375   11374   0.
CTRIA3   10974   2       10014   11374   11375   0.
CTRIA3   10975   2       11375   10007   10014   0.
CTRIA3   10976   2       10550   11374   10549   0.
CTRIA3   10977   2       10015   10549   11374   0.
CTRIA3   10978   2       11374   10014   10015   0.
CTRIA3   10979   2       10549   10015   10016   0.
CTRIA3   10980   2       10558   11385   10557   0.
CTRIA3   10981   2       10535   11379   10553   0.
CTRIA3   10982   2       11377   10553   11379   0.
CTRIA3   10983   2       11379   11378   11377   0.
CTRIA3   10984   2       11375   11377   11378   0.
CTRIA3   10985   2       11378   10007   11375   0.
CTRIA3   10986   2       10553   11377   10552   0.
CTRIA3   10987   2       11376   10552   11377   0.
CTRIA3   10988   2       11377   11375   11376   0.
CTRIA3   10989   2       10552   11376   10551   0.
CTRIA3   10990   2       11379   10540   10554   0.
CTRIA3   10991   2       10554   11378   11379   0.
CTRIA3   10992   2       10540   11379   10535   0.
CTRIA3   10993   2       11383   10557   11385   0.
CTRIA3   10994   2       11385   11384   11383   0.
CTRIA3   10995   2       11381   11383   11384   0.
CTRIA3   10996   2       11384   11380   11381   0.
CTRIA3   10997   2       10557   11383   10556   0.
CTRIA3   10998   2       11382   10556   11383   0.
CTRIA3   10999   2       11383   11381   11382   0.
CTRIA3   11001   2       10541   11388   10560   0.
CTRIA3   11002   2       11386   10560   11388   0.
CTRIA3   11003   2       11388   11387   11386   0.
CTRIA3   11004   2       11384   11386   11387   0.
CTRIA3   11005   2       11387   11380   11384   0.
CTRIA3   11006   2       10560   11386   10559   0.
CTRIA3   11007   2       11385   10559   11386   0.
CTRIA3   11008   2       11386   11384   11385   0.
CTRIA3   11009   2       10559   11385   10558   0.
CTRIA3   11010   2       10538   11391   10546   0.
CTRIA3   11011   2       11389   10546   11391   0.
CTRIA3   11012   2       11391   11390   11389   0.
CTRIA3   11013   2       11387   11389   11390   0.
CTRIA3   11014   2       11390   11380   11387   0.
CTRIA3   11015   2       10546   11389   10547   0.
CTRIA3   11016   2       11388   10547   11389   0.
CTRIA3   11017   2       11389   11387   11388   0.
CTRIA3   11018   2       10547   11388   10541   0.
CTRIA3   11019   2       10535   11394   10536   0.
CTRIA3   11020   2       11392   10536   11394   0.
CTRIA3   11021   2       11394   11393   11392   0.
CTRIA3   11022   2       11390   11392   11393   0.
CTRIA3   11023   2       11393   11380   11390   0.
CTRIA3   11024   2       10536   11392   10537   0.
CTRIA3   11025   2       11391   10537   11392   0.
CTRIA3   11026   2       11392   11390   11391   0.
CTRIA3   11027   2       10537   11391   10538   0.
CTRIA3   11028   2       10551   11397   10552   0.
CTRIA3   11029   2       11395   10552   11397   0.
CTRIA3   11030   2       11397   11396   11395   0.
CTRIA3   11031   2       11393   11395   11396   0.
CTRIA3   11032   2       11396   11380   11393   0.
CTRIA3   11033   2       10552   11395   10553   0.
CTRIA3   11034   2       11394   10553   11395   0.
CTRIA3   11035   2       11395   11393   11394   0.
CTRIA3   11036   2       10553   11394   10535   0.
CTRIA3   11039   2       11382   11381   11398   0.
CTRIA3   11040   2       11396   11398   11381   0.
CTRIA3   11041   2       11381   11380   11396   0.
CTRIA3   11043   2       11397   10561   11398   0.
CTRIA3   11044   2       11398   11396   11397   0.
CTRIA3   11045   2       10561   11397   10551   0.
CTRIA3   11046   2       10566   11404   10565   0.
CTRIA3   11047   2       11402   10565   11404   0.
CTRIA3   11048   2       11404   11403   11402   0.
CTRIA3   11049   2       11400   11402   11403   0.
CTRIA3   11050   2       11403   11399   11400   0.
CTRIA3   11051   2       10565   11402   10564   0.
CTRIA3   11052   2       11401   10564   11402   0.
CTRIA3   11053   2       11402   11400   11401   0.
CTRIA3   11054   2       10564   11401   10563   0.
CTRIA3   11055   2       10548   11407   10568   0.
CTRIA3   11056   2       11405   10568   11407   0.
CTRIA3   11057   2       11407   11406   11405   0.
CTRIA3   11058   2       11403   11405   11406   0.
CTRIA3   11059   2       11406   11399   11403   0.
CTRIA3   11060   2       10568   11405   10567   0.
CTRIA3   11061   2       11404   10567   11405   0.
CTRIA3   11062   2       11405   11403   11404   0.
CTRIA3   11063   2       10567   11404   10566   0.
CTRIA3   11064   2       10544   11410   10748   0.
CTRIA3   11065   2       11408   10748   11410   0.
CTRIA3   11066   2       11410   11409   11408   0.
CTRIA3   11067   2       11406   11408   11409   0.
CTRIA3   11068   2       11409   11399   11406   0.
CTRIA3   11069   2       10748   11408   10749   0.
CTRIA3   11070   2       11407   10749   11408   0.
CTRIA3   11071   2       11408   11406   11407   0.
CTRIA3   11072   2       10749   11407   10548   0.
CTRIA3   11073   2       10541   11413   10542   0.
CTRIA3   11074   2       11411   10542   11413   0.
CTRIA3   11075   2       11413   11412   11411   0.
CTRIA3   11076   2       11409   11411   11412   0.
CTRIA3   11077   2       11412   11399   11409   0.
CTRIA3   11078   2       10542   11411   10543   0.
CTRIA3   11079   2       11410   10543   11411   0.
CTRIA3   11080   2       11411   11409   11410   0.
CTRIA3   11081   2       10543   11410   10544   0.
CTRIA3   11082   2       10558   11416   10559   0.
CTRIA3   11083   2       11414   10559   11416   0.
CTRIA3   11084   2       11416   11415   11414   0.
CTRIA3   11085   2       11412   11414   11415   0.
CTRIA3   11086   2       11415   11399   11412   0.
CTRIA3   11087   2       10559   11414   10560   0.
CTRIA3   11088   2       11413   10560   11414   0.
CTRIA3   11089   2       11414   11412   11413   0.
CTRIA3   11090   2       10560   11413   10541   0.
CTRIA3   11091   2       10563   11401   10570   0.
CTRIA3   11092   2       11417   10570   11401   0.
CTRIA3   11093   2       11401   11400   11417   0.
CTRIA3   11094   2       11415   11417   11400   0.
CTRIA3   11095   2       11400   11399   11415   0.
CTRIA3   11096   2       10570   11417   10569   0.
CTRIA3   11097   2       11416   10569   11417   0.
CTRIA3   11098   2       11417   11415   11416   0.
CTRIA3   11099   2       10569   11416   10558   0.
CTRIA3   11109   2       10566   11428   10567   0.
CTRIA3   11110   2       11426   10567   11428   0.
CTRIA3   11111   2       11428   11427   11426   0.
CTRIA3   11112   2       11424   11426   11427   0.
CTRIA3   11113   2       11427   11418   11424   0.
CTRIA3   11114   2       10567   11426   10568   0.
CTRIA3   11115   2       11425   10568   11426   0.
CTRIA3   11116   2       11426   11424   11425   0.
CTRIA3   11117   2       10568   11425   10548   0.
CTRIA3   11124   2       11428   10575   11429   0.
CTRIA3   11125   2       11429   11427   11428   0.
CTRIA3   11126   2       10575   11428   10566   0.
CTRIA3   11136   2       10589   11454   10588   0.
CTRIA3   11146   2       10551   11441   10561   0.
CTRIA3   11155   2       10016   11444   10549   0.
CTRIA3   11156   2       11442   10549   11444   0.
CTRIA3   11160   2       10549   11442   10550   0.
CTRIA3   11161   2       11441   10550   11442   0.
CTRIA3   11163   2       10550   11441   10551   0.
CTRIA3   11172   2       10024   11444   10016   0.
CTRIA3   11182   2       11452   10588   11454   0.
CTRIA3   11183   2       11454   11453   11452   0.
CTRIA3   11184   2       11450   11452   11453   0.
CTRIA3   11185   2       11453   11449   11450   0.
CTRIA3   11186   2       10588   11452   10587   0.
CTRIA3   11187   2       11451   10587   11452   0.
CTRIA3   11188   2       11452   11450   11451   0.
CTRIA3   11190   2       10563   11457   10591   0.
CTRIA3   11191   2       11455   10591   11457   0.
CTRIA3   11192   2       11457   11456   11455   0.
CTRIA3   11193   2       11453   11455   11456   0.
CTRIA3   11194   2       11456   11449   11453   0.
CTRIA3   11195   2       10591   11455   10590   0.
CTRIA3   11196   2       11454   10590   11455   0.
CTRIA3   11197   2       11455   11453   11454   0.
CTRIA3   11198   2       10590   11454   10589   0.
CTRIA3   11199   2       10558   11460   10569   0.
CTRIA3   11200   2       11458   10569   11460   0.
CTRIA3   11201   2       11460   11459   11458   0.
CTRIA3   11202   2       11456   11458   11459   0.
CTRIA3   11203   2       11459   11449   11456   0.
CTRIA3   11204   2       10569   11458   10570   0.
CTRIA3   11205   2       11457   10570   11458   0.
CTRIA3   11206   2       11458   11456   11457   0.
CTRIA3   11207   2       10570   11457   10563   0.
CTRIA3   11209   2       11461   10556   11463   0.
CTRIA3   11210   2       11463   11462   11461   0.
CTRIA3   11211   2       11459   11461   11462   0.
CTRIA3   11212   2       11462   11449   11459   0.
CTRIA3   11213   2       10556   11461   10557   0.
CTRIA3   11214   2       11460   10557   11461   0.
CTRIA3   11215   2       11461   11459   11460   0.
CTRIA3   11216   2       10557   11460   10558   0.
CTRIA3   11221   2       11465   11449   11462   0.
CTRIA3   11230   2       11450   11449   11465   0.
CTRIA3   11235   2       10597   11473   10596   0.
CTRIA3   11236   2       11471   10596   11473   0.
CTRIA3   11237   2       11473   11472   11471   0.
CTRIA3   11238   2       11469   11471   11472   0.
CTRIA3   11239   2       11472   11468   11469   0.
CTRIA3   11240   2       10596   11471   10595   0.
CTRIA3   11241   2       11470   10595   11471   0.
CTRIA3   11242   2       11471   11469   11470   0.
CTRIA3   11243   2       10595   11470   10594   0.
CTRIA3   11246   2       11476   11475   11474   0.
CTRIA3   11247   2       11472   11474   11475   0.
CTRIA3   11248   2       11475   11468   11472   0.
CTRIA3   11250   2       11473   50429   11474   0.
CTRIA3   11251   2       11474   11472   11473   0.
CTRIA3   11252   2       50429   11473   10597   0.
CTRIA3   11253   2       10566   11479   10575   0.
CTRIA3   11254   2       11477   10575   11479   0.
CTRIA3   11255   2       11479   11478   11477   0.
CTRIA3   11256   2       11475   11477   11478   0.
CTRIA3   11257   2       11478   11468   11475   0.
CTRIA3   11260   2       11477   11475   11476   0.
CTRIA3   11262   2       10563   11482   10564   0.
CTRIA3   11263   2       11480   10564   11482   0.
CTRIA3   11264   2       11482   11481   11480   0.
CTRIA3   11265   2       11478   11480   11481   0.
CTRIA3   11266   2       11481   11468   11478   0.
CTRIA3   11267   2       10564   11480   10565   0.
CTRIA3   11268   2       11479   10565   11480   0.
CTRIA3   11269   2       11480   11478   11479   0.
CTRIA3   11270   2       10565   11479   10566   0.
CTRIA3   11271   2       10589   11485   10590   0.
CTRIA3   11272   2       11483   10590   11485   0.
CTRIA3   11273   2       11485   11484   11483   0.
CTRIA3   11274   2       11481   11483   11484   0.
CTRIA3   11275   2       11484   11468   11481   0.
CTRIA3   11276   2       10590   11483   10591   0.
CTRIA3   11277   2       11482   10591   11483   0.
CTRIA3   11278   2       11483   11481   11482   0.
CTRIA3   11279   2       10591   11482   10563   0.
CTRIA3   11280   2       10594   11470   10601   0.
CTRIA3   11281   2       11486   10601   11470   0.
CTRIA3   11282   2       11470   11469   11486   0.
CTRIA3   11283   2       11484   11486   11469   0.
CTRIA3   11284   2       11469   11468   11484   0.
CTRIA3   11285   2       10601   11486   10600   0.
CTRIA3   11286   2       11485   10600   11486   0.
CTRIA3   11287   2       11486   11484   11485   0.
CTRIA3   11288   2       10600   11485   10589   0.
CTRIA3   11289   2       10605   11492   10604   0.
CTRIA3   11290   2       11490   10604   11492   0.
CTRIA3   11291   2       11492   11491   11490   0.
CTRIA3   11292   2       11488   11490   11491   0.
CTRIA3   11294   2       10604   11490   10603   0.
CTRIA3   11295   2       11489   10603   11490   0.
CTRIA3   11296   2       11490   11488   11489   0.
CTRIA3   11297   2       10603   11489   10602   0.
CTRIA3   11303   2       50434   11493   10606   0.
CTRIA3   11304   2       11492   10606   11493   0.
CTRIA3   11305   2       11493   11491   11492   0.
CTRIA3   11306   2       10606   11492   10605   0.
CTRIA3   11334   2       10602   11489   10609   0.
CTRIA3   11335   2       11505   10609   11489   0.
CTRIA3   11336   2       11489   11488   11505   0.
CTRIA3   11339   2       10609   11505   10608   0.
CTRIA3   11340   2       11504   10608   11505   0.
CTRIA3   11342   2       10608   11504   10597   0.
CTRIA3   11343   2       11507   10611   10612   0.
CTRIA3   11344   2       10612   11506   11507   0.
CTRIA3   11345   2       10611   11507   11508   0.
CTRIA3   11346   2       10605   11513   10606   0.
CTRIA3   11347   2       11511   10606   11513   0.
CTRIA3   11348   2       11513   11512   11511   0.
CTRIA3   11349   2       11509   11511   11512   0.
CTRIA3   11350   2       11512   11506   11509   0.
CTRIA3   11351   2       10606   11511   50434   0.
CTRIA3   11352   2       11510   50434   11511   0.
CTRIA3   11353   2       11511   11509   11510   0.
CTRIA3   11355   2       10610   11508   10614   0.
CTRIA3   11356   2       11514   10614   11508   0.
CTRIA3   11357   2       11508   11507   11514   0.
CTRIA3   11358   2       11512   11514   11507   0.
CTRIA3   11359   2       11507   11506   11512   0.
CTRIA3   11360   2       10614   11514   10613   0.
CTRIA3   11361   2       11513   10613   11514   0.
CTRIA3   11362   2       11514   11512   11513   0.
CTRIA3   11363   2       10613   11513   10605   0.
CTRIA3   11445   2       10631   11546   10630   0.
CTRIA3   11446   2       11544   10630   11546   0.
CTRIA3   11447   2       11546   11545   11544   0.
CTRIA3   11448   2       11542   11544   11545   0.
CTRIA3   11449   2       11545   11541   11542   0.
CTRIA3   11450   2       10630   11544   10629   0.
CTRIA3   11451   2       11543   10629   11544   0.
CTRIA3   11452   2       11544   11542   11543   0.
CTRIA3   11454   2       10594   11549   10633   0.
CTRIA3   11455   2       11547   10633   11549   0.
CTRIA3   11456   2       11549   11548   11547   0.
CTRIA3   11457   2       11545   11547   11548   0.
CTRIA3   11458   2       11548   11541   11545   0.
CTRIA3   11459   2       10633   11547   10632   0.
CTRIA3   11460   2       11546   10632   11547   0.
CTRIA3   11461   2       11547   11545   11546   0.
CTRIA3   11462   2       10632   11546   10631   0.
CTRIA3   11463   2       10589   11552   10600   0.
CTRIA3   11464   2       11550   10600   11552   0.
CTRIA3   11465   2       11552   11551   11550   0.
CTRIA3   11466   2       11548   11550   11551   0.
CTRIA3   11467   2       11551   11541   11548   0.
CTRIA3   11468   2       10600   11550   10601   0.
CTRIA3   11469   2       11549   10601   11550   0.
CTRIA3   11470   2       11550   11548   11549   0.
CTRIA3   11471   2       10601   11549   10594   0.
CTRIA3   11473   2       11553   10587   11555   0.
CTRIA3   11474   2       11555   11554   11553   0.
CTRIA3   11475   2       11551   11553   11554   0.
CTRIA3   11476   2       11554   11541   11551   0.
CTRIA3   11477   2       10587   11553   10588   0.
CTRIA3   11478   2       11552   10588   11553   0.
CTRIA3   11479   2       11553   11551   11552   0.
CTRIA3   11480   2       10588   11552   10589   0.
CTRIA3   11485   2       11557   11541   11554   0.
CTRIA3   11494   2       11542   11541   11557   0.
CTRIA3   11499   2       10639   11565   10638   0.
CTRIA3   11500   2       11563   10638   11565   0.
CTRIA3   11501   2       11565   11564   11563   0.
CTRIA3   11502   2       11561   11563   11564   0.
CTRIA3   11503   2       11564   11560   11561   0.
CTRIA3   11504   2       10638   11563   10637   0.
CTRIA3   11505   2       11562   10637   11563   0.
CTRIA3   11506   2       11563   11561   11562   0.
CTRIA3   11507   2       10637   11562   10636   0.
CTRIA3   11508   2       10602   11568   10641   0.
CTRIA3   11509   2       11566   10641   11568   0.
CTRIA3   11510   2       11568   11567   11566   0.
CTRIA3   11511   2       11564   11566   11567   0.
CTRIA3   11512   2       11567   11560   11564   0.
CTRIA3   11513   2       10641   11566   10640   0.
CTRIA3   11514   2       11565   10640   11566   0.
CTRIA3   11515   2       11566   11564   11565   0.
CTRIA3   11516   2       10640   11565   10639   0.
CTRIA3   11517   2       10597   11571   10608   0.
CTRIA3   11518   2       11569   10608   11571   0.
CTRIA3   11519   2       11571   11570   11569   0.
CTRIA3   11520   2       11567   11569   11570   0.
CTRIA3   11521   2       11570   11560   11567   0.
CTRIA3   11522   2       10608   11569   10609   0.
CTRIA3   11523   2       11568   10609   11569   0.
CTRIA3   11524   2       11569   11567   11568   0.
CTRIA3   11525   2       10609   11568   10602   0.
CTRIA3   11526   2       10594   11574   10595   0.
CTRIA3   11527   2       11572   10595   11574   0.
CTRIA3   11528   2       11574   11573   11572   0.
CTRIA3   11529   2       11570   11572   11573   0.
CTRIA3   11530   2       11573   11560   11570   0.
CTRIA3   11531   2       10595   11572   10596   0.
CTRIA3   11532   2       11571   10596   11572   0.
CTRIA3   11533   2       11572   11570   11571   0.
CTRIA3   11534   2       10596   11571   10597   0.
CTRIA3   11535   2       10631   11577   10632   0.
CTRIA3   11536   2       11575   10632   11577   0.
CTRIA3   11537   2       11577   11576   11575   0.
CTRIA3   11538   2       11573   11575   11576   0.
CTRIA3   11539   2       11576   11560   11573   0.
CTRIA3   11540   2       10632   11575   10633   0.
CTRIA3   11541   2       11574   10633   11575   0.
CTRIA3   11542   2       11575   11573   11574   0.
CTRIA3   11543   2       10633   11574   10594   0.
CTRIA3   11544   2       10636   11562   10643   0.
CTRIA3   11545   2       11578   10643   11562   0.
CTRIA3   11546   2       11562   11561   11578   0.
CTRIA3   11547   2       11576   11578   11561   0.
CTRIA3   11548   2       11561   11560   11576   0.
CTRIA3   11549   2       10643   11578   10642   0.
CTRIA3   11550   2       11577   10642   11578   0.
CTRIA3   11551   2       11578   11576   11577   0.
CTRIA3   11552   2       10642   11577   10631   0.
CTRIA3   11553   2       10646   11579   10644   0.
CTRIA3   11554   2       10648   11580   10647   0.
CTRIA3   11555   2       10646   10647   11580   0.
CTRIA3   11556   2       11580   11579   10646   0.
CTRIA3   11557   2       10605   11583   10613   0.
CTRIA3   11558   2       11581   10613   11583   0.
CTRIA3   11559   2       11583   11582   11581   0.
CTRIA3   11560   2       11580   11581   11582   0.
CTRIA3   11561   2       11582   11579   11580   0.
CTRIA3   11562   2       10613   11581   10614   0.
CTRIA3   11563   2       10648   10614   11581   0.
CTRIA3   11564   2       11581   11580   10648   0.
CTRIA3   11565   2       10614   10648   10610   0.
CTRIA3   11566   2       10602   11586   10603   0.
CTRIA3   11567   2       11584   10603   11586   0.
CTRIA3   11568   2       11586   11585   11584   0.
CTRIA3   11569   2       11582   11584   11585   0.
CTRIA3   11570   2       11585   11579   11582   0.
CTRIA3   11571   2       10603   11584   10604   0.
CTRIA3   11572   2       11583   10604   11584   0.
CTRIA3   11573   2       11584   11582   11583   0.
CTRIA3   11574   2       10604   11583   10605   0.
CTRIA3   11575   2       10639   11589   10640   0.
CTRIA3   11576   2       11587   10640   11589   0.
CTRIA3   11577   2       11589   11588   11587   0.
CTRIA3   11578   2       11585   11587   11588   0.
CTRIA3   11579   2       11588   11579   11585   0.
CTRIA3   11580   2       10640   11587   10641   0.
CTRIA3   11581   2       11586   10641   11587   0.
CTRIA3   11582   2       11587   11585   11586   0.
CTRIA3   11583   2       10641   11586   10602   0.
CTRIA3   11584   2       11590   10650   10645   0.
CTRIA3   11585   2       10645   10644   11590   0.
CTRIA3   11586   2       11588   11590   10644   0.
CTRIA3   11587   2       10644   11579   11588   0.
CTRIA3   11588   2       10650   11590   10649   0.
CTRIA3   11589   2       11589   10649   11590   0.
CTRIA3   11590   2       11590   11588   11589   0.
CTRIA3   11591   2       10649   11589   10639   0.
CTRIA3   11700   2       10669   11634   10668   0.
CTRIA3   11701   2       11632   10668   11634   0.
CTRIA3   11702   2       11634   11633   11632   0.
CTRIA3   11703   2       11630   11632   11633   0.
CTRIA3   11704   2       11633   11629   11630   0.
CTRIA3   11705   2       10668   11632   10667   0.
CTRIA3   11706   2       11632   11630   11631   0.
CTRIA3   11707   2       10636   11637   10671   0.
CTRIA3   11708   2       11635   10671   11637   0.
CTRIA3   11709   2       11637   11636   11635   0.
CTRIA3   11710   2       11633   11635   11636   0.
CTRIA3   11711   2       11636   11629   11633   0.
CTRIA3   11712   2       10671   11635   10670   0.
CTRIA3   11713   2       11634   10670   11635   0.
CTRIA3   11714   2       11635   11633   11634   0.
CTRIA3   11715   2       10670   11634   10669   0.
CTRIA3   11716   2       10631   11640   10642   0.
CTRIA3   11717   2       11638   10642   11640   0.
CTRIA3   11718   2       11640   11639   11638   0.
CTRIA3   11719   2       11636   11638   11639   0.
CTRIA3   11720   2       11639   11629   11636   0.
CTRIA3   11721   2       10642   11638   10643   0.
CTRIA3   11722   2       11637   10643   11638   0.
CTRIA3   11723   2       11638   11636   11637   0.
CTRIA3   11724   2       10643   11637   10636   0.
CTRIA3   11726   2       11641   10629   11643   0.
CTRIA3   11727   2       11643   11642   11641   0.
CTRIA3   11728   2       11639   11641   11642   0.
CTRIA3   11729   2       11642   11629   11639   0.
CTRIA3   11730   2       10629   11641   10630   0.
CTRIA3   11731   2       11640   10630   11641   0.
CTRIA3   11732   2       11641   11639   11640   0.
CTRIA3   11733   2       10630   11640   10631   0.
CTRIA3   11738   2       11645   11629   11642   0.
CTRIA3   11743   2       11647   10673   11631   0.
CTRIA3   11744   2       11631   11630   11647   0.
CTRIA3   11745   2       11645   11647   11630   0.
CTRIA3   11746   2       11630   11629   11645   0.
CTRIA3   11747   2       10673   11647   10672   0.
CTRIA3   11748   2       11646   10672   11647   0.
CTRIA3   11749   2       11647   11645   11646   0.
CTRIA3   11750   2       10672   11646   10662   0.
CTRIA3   11751   2       10639   11648   10649   0.
CTRIA3   11752   2       10675   10649   11648   0.
CTRIA3   11753   2       11648   10676   10675   0.
CTRIA3   11754   2       10649   10675   10650   0.
CTRIA3   11755   2       10636   11651   10637   0.
CTRIA3   11756   2       11649   10637   11651   0.
CTRIA3   11757   2       11651   11650   11649   0.
CTRIA3   11758   2       10676   11649   11650   0.
CTRIA3   11759   2       11650   10674   10676   0.
CTRIA3   11760   2       10637   11649   10638   0.
CTRIA3   11761   2       11648   10638   11649   0.
CTRIA3   11762   2       11649   10676   11648   0.
CTRIA3   11763   2       10638   11648   10639   0.
CTRIA3   11764   2       10669   10678   10670   0.
CTRIA3   11765   2       11652   10670   10678   0.
CTRIA3   11766   2       10678   10677   11652   0.
CTRIA3   11767   2       11650   11652   10677   0.
CTRIA3   11768   2       10677   10674   11650   0.
CTRIA3   11769   2       10670   11652   10671   0.
CTRIA3   11770   2       11651   10671   11652   0.
CTRIA3   11771   2       11652   11650   11651   0.
CTRIA3   11772   2       10671   11651   10636   0.
CTRIA3   11773   2       10682   11371   11365   0.
CTRIA3   11774   2       10682   10545   11371   0.
CTRIA3   11775   2       10456   11378   10554   0.
CTRIA3   11776   2       10456   10007   11378   0.
CTRIA3   11777   2       11508   10610   10683   0.
CTRIA3   11778   2       10611   11508   10683   0.
CTRIA3   11779   2       11632   11631   10667   0.
CTRIA3   11780   2       10684   10667   11631   0.
CTRIA3   11781   2       10673   10684   11631   0.
CTRIA3   11803   2       10689   10687   11659   0.
CTRIA3   11804   2       10691   10690   11660   0.
CTRIA3   11805   2       10689   11660   10690   0.
CTRIA3   11806   2       11660   10689   11659   0.
CTRIA3   11834   2       11670   10688   10692   0.
CTRIA3   11835   2       10688   11670   10687   0.
CTRIA3   11836   2       11668   10687   11670   0.
CTRIA3   11837   2       10687   11668   11659   0.
CTRIA3   11838   2       10692   10681   11670   0.
CTRIA3   11839   2       11669   11670   10681   0.
CTRIA3   11840   2       11670   11669   11668   0.
CTRIA3   11841   2       10681   10659   11669   0.
CTRIA3   11842   2       10659   10681   11671   0.
CTRIA3   11843   2       10694   11671   10681   0.
CTRIA3   11844   2       11671   10694   10695   0.
CTRIA3   11845   2       10681   10692   10694   0.
CTRIA3   11846   2       10662   10661   11674   0.
CTRIA3   11847   2       11672   11674   10661   0.
CTRIA3   11848   2       11674   11672   11673   0.
CTRIA3   11849   2       10695   11673   11672   0.
CTRIA3   11850   2       11673   10695   10693   0.
CTRIA3   11851   2       10661   10660   11672   0.
CTRIA3   11852   2       11671   11672   10660   0.
CTRIA3   11853   2       11672   11671   10695   0.
CTRIA3   11854   2       10660   10659   11671   0.
CTRIA3   11855   2       10684   10673   10697   0.
CTRIA3   11856   2       11675   10697   10673   0.
CTRIA3   11857   2       10697   11675   10696   0.
CTRIA3   11858   2       11673   10696   11675   0.
CTRIA3   11859   2       10696   11673   10693   0.
CTRIA3   11860   2       10673   10672   11675   0.
CTRIA3   11861   2       11674   11675   10672   0.
CTRIA3   11862   2       11675   11674   11673   0.
CTRIA3   11863   2       10672   10662   11674   0.
CQUAD4   11866   2       10686   10233   10504   11676   0.
CQUAD4   11867   2       10612   10611   11677   11678   0.
CQUAD4   11868   2       10611   10683   11679   11677   0.
CQUAD4   11869   2       10683   10610   11680   11679   0.
CQUAD4   11870   2       10610   10648   11681   11680   0.
CQUAD4   11871   2       10648   10647   11682   11681   0.
CQUAD4   11872   2       10647   10646   11683   11682   0.
CQUAD4   11873   2       10646   10644   11684   11683   0.
CQUAD4   11874   2       10644   10645   11685   11684   0.
CQUAD4   11875   2       10645   10650   11686   11685   0.
CQUAD4   11876   2       10650   10675   11687   11686   0.
CQUAD4   11877   2       10675   10676   11688   11687   0.
CQUAD4   11878   2       10676   10674   11689   11688   0.
CQUAD4   11879   2       10674   10677   11690   11689   0.
CQUAD4   11880   2       10677   10678   11691   11690   0.
CQUAD4   11881   2       10678   10669   11692   11691   0.
CQUAD4   11882   2       10669   10668   11693   11692   0.
CQUAD4   11883   2       10668   10667   11694   11693   0.
CQUAD4   11884   2       10667   10684   11695   11694   0.
CQUAD4   11885   2       10684   10697   11696   11695   0.
CQUAD4   11886   2       10697   10696   11697   11696   0.
CQUAD4   11887   2       10696   10693   11698   11697   0.
CQUAD4   11888   2       10693   10695   11699   11698   0.
CQUAD4   11889   2       10695   10694   11700   11699   0.
CQUAD4   11890   2       10694   10692   11701   11700   0.
CQUAD4   11891   2       10692   10688   11702   11701   0.
CQUAD4   11892   2       10688   10687   11703   11702   0.
CQUAD4   11893   2       10687   10689   11704   11703   0.
CQUAD4   11894   2       10689   10690   11705   11704   0.
CQUAD4   11895   2       10690   10691   11706   11705   0.
CQUAD4   11896   2       10691   10685   11707   11706   0.
CTRIA3   11900   2       11712   10707   11714   0.
CTRIA3   11901   2       11714   11713   11712   0.
CTRIA3   11902   2       11710   11712   11713   0.
CTRIA3   11903   2       11713   11709   11710   0.
CTRIA3   11904   2       10707   11712   10706   0.
CTRIA3   11905   2       11711   10706   11712   0.
CTRIA3   11906   2       11712   11710   11711   0.
CTRIA3   11907   2       10706   11711   10705   0.
CTRIA3   11908   2       10702   11716   10703   0.
CTRIA3   11909   2       10709   10703   11716   0.
CTRIA3   11910   2       11716   11715   10709   0.
CTRIA3   11911   2       10705   11711   10711   0.
CTRIA3   11912   2       11717   10711   11711   0.
CTRIA3   11913   2       11711   11710   11717   0.
CTRIA3   11914   2       11715   11717   11710   0.
CTRIA3   11915   2       11710   11709   11715   0.
CTRIA3   11916   2       10711   11717   10710   0.
CTRIA3   11917   2       11716   10710   11717   0.
CTRIA3   11918   2       11717   11715   11716   0.
CTRIA3   11919   2       10710   11716   10702   0.
CTRIA3   11920   2       10715   11720   10714   0.
CTRIA3   11921   2       11718   10714   11720   0.
CTRIA3   11922   2       11720   11719   11718   0.
CTRIA3   11923   2       11369   11718   11719   0.
CTRIA3   11924   2       11719   11365   11369   0.
CTRIA3   11925   2       10714   11718   10713   0.
CTRIA3   11926   2       11370   10713   11718   0.
CTRIA3   11927   2       11718   11369   11370   0.
CTRIA3   11928   2       10713   11370   10544   0.
CTRIA3   11929   2       10722   11729   10721   0.
CTRIA3   11930   2       10699   11723   10717   0.
CTRIA3   11931   2       11721   10717   11723   0.
CTRIA3   11932   2       11723   11722   11721   0.
CTRIA3   11933   2       11719   11721   11722   0.
CTRIA3   11934   2       11722   11365   11719   0.
CTRIA3   11935   2       10717   11721   10716   0.
CTRIA3   11936   2       11720   10716   11721   0.
CTRIA3   11937   2       11721   11719   11720   0.
CTRIA3   11938   2       10716   11720   10715   0.
CTRIA3   11939   2       11723   10704   10718   0.
CTRIA3   11940   2       10718   11722   11723   0.
CTRIA3   11941   2       10704   11723   10699   0.
CTRIA3   11942   2       11727   10721   11729   0.
CTRIA3   11943   2       11729   11728   11727   0.
CTRIA3   11944   2       11725   11727   11728   0.
CTRIA3   11945   2       11728   11724   11725   0.
CTRIA3   11946   2       10721   11727   10720   0.
CTRIA3   11947   2       11726   10720   11727   0.
CTRIA3   11948   2       11727   11725   11726   0.
CTRIA3   11949   2       10720   11726   10719   0.
CTRIA3   11950   2       10705   11732   10724   0.
CTRIA3   11951   2       11730   10724   11732   0.
CTRIA3   11952   2       11732   11731   11730   0.
CTRIA3   11953   2       11728   11730   11731   0.
CTRIA3   11954   2       11731   11724   11728   0.
CTRIA3   11955   2       10724   11730   10723   0.
CTRIA3   11956   2       11729   10723   11730   0.
CTRIA3   11957   2       11730   11728   11729   0.
CTRIA3   11958   2       10723   11729   10722   0.
CTRIA3   11959   2       10702   11735   10710   0.
CTRIA3   11960   2       11733   10710   11735   0.
CTRIA3   11961   2       11735   11734   11733   0.
CTRIA3   11962   2       11731   11733   11734   0.
CTRIA3   11963   2       11734   11724   11731   0.
CTRIA3   11964   2       10710   11733   10711   0.
CTRIA3   11965   2       11732   10711   11733   0.
CTRIA3   11966   2       11733   11731   11732   0.
CTRIA3   11967   2       10711   11732   10705   0.
CTRIA3   11968   2       10699   11738   10700   0.
CTRIA3   11969   2       11736   10700   11738   0.
CTRIA3   11970   2       11738   11737   11736   0.
CTRIA3   11971   2       11734   11736   11737   0.
CTRIA3   11972   2       11737   11724   11734   0.
CTRIA3   11973   2       10700   11736   10701   0.
CTRIA3   11974   2       11735   10701   11736   0.
CTRIA3   11975   2       11736   11734   11735   0.
CTRIA3   11976   2       10701   11735   10702   0.
CTRIA3   11977   2       10715   11741   10716   0.
CTRIA3   11978   2       11739   10716   11741   0.
CTRIA3   11979   2       11741   11740   11739   0.
CTRIA3   11980   2       11737   11739   11740   0.
CTRIA3   11981   2       11740   11724   11737   0.
CTRIA3   11982   2       10716   11739   10717   0.
CTRIA3   11983   2       11738   10717   11739   0.
CTRIA3   11984   2       11739   11737   11738   0.
CTRIA3   11985   2       10717   11738   10699   0.
CTRIA3   11986   2       10719   11726   10726   0.
CTRIA3   11987   2       11742   10726   11726   0.
CTRIA3   11988   2       11726   11725   11742   0.
CTRIA3   11989   2       11740   11742   11725   0.
CTRIA3   11990   2       11725   11724   11740   0.
CTRIA3   11991   2       10726   11742   10725   0.
CTRIA3   11992   2       11741   10725   11742   0.
CTRIA3   11993   2       11742   11740   11741   0.
CTRIA3   11994   2       10725   11741   10715   0.
CTRIA3   12003   2       10728   11745   10727   0.
CTRIA3   12022   2       10705   11757   10706   0.
CTRIA3   12031   2       10722   11760   10723   0.
CTRIA3   12039   2       10724   11757   10705   0.
CTRIA3   12040   2       10727   11745   10734   0.
CTRIA3   12041   2       11761   10734   11745   0.
CTRIA3   12045   2       10734   11761   10733   0.
CTRIA3   12046   2       11760   10733   11761   0.
CTRIA3   12048   2       10733   11760   10722   0.
CTRIA3   12076   2       10745   11779   10744   0.
CTRIA3   12077   2       11777   10744   11779   0.
CTRIA3   12078   2       11779   11778   11777   0.
CTRIA3   12079   2       11775   11777   11778   0.
CTRIA3   12080   2       11778   11774   11775   0.
CTRIA3   12081   2       10744   11777   10743   0.
CTRIA3   12082   2       11776   10743   11777   0.
CTRIA3   12083   2       11777   11775   11776   0.
CTRIA3   12084   2       10743   11776   10742   0.
CTRIA3   12085   2       10755   11798   10754   0.
CTRIA3   12086   2       10719   11782   10747   0.
CTRIA3   12087   2       11780   10747   11782   0.
CTRIA3   12088   2       11782   11781   11780   0.
CTRIA3   12089   2       11778   11780   11781   0.
CTRIA3   12090   2       11781   11774   11778   0.
CTRIA3   12091   2       10747   11780   10746   0.
CTRIA3   12092   2       11779   10746   11780   0.
CTRIA3   12093   2       11780   11778   11779   0.
CTRIA3   12094   2       10746   11779   10745   0.
CTRIA3   12095   2       10715   11785   10725   0.
CTRIA3   12096   2       11783   10725   11785   0.
CTRIA3   12097   2       11785   11784   11783   0.
CTRIA3   12098   2       11781   11783   11784   0.
CTRIA3   12099   2       11784   11774   11781   0.
CTRIA3   12100   2       10725   11783   10726   0.
CTRIA3   12101   2       11782   10726   11783   0.
CTRIA3   12102   2       11783   11781   11782   0.
CTRIA3   12103   2       10726   11782   10719   0.
CTRIA3   12104   2       10544   11788   10713   0.
CTRIA3   12105   2       11786   10713   11788   0.
CTRIA3   12106   2       11788   11787   11786   0.
CTRIA3   12107   2       11784   11786   11787   0.
CTRIA3   12108   2       11787   11774   11784   0.
CTRIA3   12109   2       10713   11786   10714   0.
CTRIA3   12110   2       11785   10714   11786   0.
CTRIA3   12111   2       11786   11784   11785   0.
CTRIA3   12112   2       10714   11785   10715   0.
CTRIA3   12113   2       10548   11791   10749   0.
CTRIA3   12114   2       11789   10749   11791   0.
CTRIA3   12115   2       11791   11790   11789   0.
CTRIA3   12116   2       11787   11789   11790   0.
CTRIA3   12117   2       11790   11774   11787   0.
CTRIA3   12118   2       10749   11789   10748   0.
CTRIA3   12119   2       11788   10748   11789   0.
CTRIA3   12120   2       11789   11787   11788   0.
CTRIA3   12121   2       10748   11788   10544   0.
CTRIA3   12122   2       10742   11776   10751   0.
CTRIA3   12123   2       11792   10751   11776   0.
CTRIA3   12124   2       11776   11775   11792   0.
CTRIA3   12125   2       11790   11792   11775   0.
CTRIA3   12126   2       11775   11774   11790   0.
CTRIA3   12127   2       10751   11792   10750   0.
CTRIA3   12128   2       11791   10750   11792   0.
CTRIA3   12129   2       11792   11790   11791   0.
CTRIA3   12130   2       10750   11791   10548   0.
CTRIA3   12131   2       11796   10754   11798   0.
CTRIA3   12132   2       11798   11797   11796   0.
CTRIA3   12133   2       11794   11796   11797   0.
CTRIA3   12134   2       11797   11793   11794   0.
CTRIA3   12135   2       10754   11796   10753   0.
CTRIA3   12136   2       11795   10753   11796   0.
CTRIA3   12137   2       11796   11794   11795   0.
CTRIA3   12138   2       10753   11795   10752   0.
CTRIA3   12139   2       10727   11801   10757   0.
CTRIA3   12140   2       11799   10757   11801   0.
CTRIA3   12141   2       11801   11800   11799   0.
CTRIA3   12142   2       11797   11799   11800   0.
CTRIA3   12143   2       11800   11793   11797   0.
CTRIA3   12144   2       10757   11799   10756   0.
CTRIA3   12145   2       11798   10756   11799   0.
CTRIA3   12146   2       11799   11797   11798   0.
CTRIA3   12147   2       10756   11798   10755   0.
CTRIA3   12148   2       10722   11804   10733   0.
CTRIA3   12149   2       11802   10733   11804   0.
CTRIA3   12150   2       11804   11803   11802   0.
CTRIA3   12151   2       11800   11802   11803   0.
CTRIA3   12152   2       11803   11793   11800   0.
CTRIA3   12153   2       10733   11802   10734   0.
CTRIA3   12154   2       11801   10734   11802   0.
CTRIA3   12155   2       11802   11800   11801   0.
CTRIA3   12156   2       10734   11801   10727   0.
CTRIA3   12157   2       10719   11807   10720   0.
CTRIA3   12158   2       11805   10720   11807   0.
CTRIA3   12159   2       11807   11806   11805   0.
CTRIA3   12160   2       11803   11805   11806   0.
CTRIA3   12161   2       11806   11793   11803   0.
CTRIA3   12162   2       10720   11805   10721   0.
CTRIA3   12163   2       11804   10721   11805   0.
CTRIA3   12164   2       11805   11803   11804   0.
CTRIA3   12165   2       10721   11804   10722   0.
CTRIA3   12166   2       10745   11810   10746   0.
CTRIA3   12167   2       11808   10746   11810   0.
CTRIA3   12168   2       11810   11809   11808   0.
CTRIA3   12169   2       11806   11808   11809   0.
CTRIA3   12170   2       11809   11793   11806   0.
CTRIA3   12171   2       10746   11808   10747   0.
CTRIA3   12172   2       11807   10747   11808   0.
CTRIA3   12173   2       11808   11806   11807   0.
CTRIA3   12174   2       10747   11807   10719   0.
CTRIA3   12175   2       10752   11795   10759   0.
CTRIA3   12176   2       11811   10759   11795   0.
CTRIA3   12177   2       11795   11794   11811   0.
CTRIA3   12178   2       11809   11811   11794   0.
CTRIA3   12179   2       11794   11793   11809   0.
CTRIA3   12180   2       10759   11811   10758   0.
CTRIA3   12181   2       11810   10758   11811   0.
CTRIA3   12182   2       11811   11809   11810   0.
CTRIA3   12183   2       10758   11810   10745   0.
CTRIA3   12184   2       10763   11817   10762   0.
CTRIA3   12185   2       11815   10762   11817   0.
CTRIA3   12186   2       11817   11816   11815   0.
CTRIA3   12187   2       11813   11815   11816   0.
CTRIA3   12188   2       11816   11812   11813   0.
CTRIA3   12189   2       10762   11815   10761   0.
CTRIA3   12190   2       11814   10761   11815   0.
CTRIA3   12191   2       11815   11813   11814   0.
CTRIA3   12192   2       10761   11814   10760   0.
CTRIA3   12196   2       11816   11818   11819   0.
CTRIA3   12197   2       11819   11812   11816   0.
CTRIA3   12199   2       11817   10764   11818   0.
CTRIA3   12200   2       11818   11816   11817   0.
CTRIA3   12201   2       10764   11817   10763   0.
CTRIA3   12206   2       11822   11812   11819   0.
CTRIA3   12211   2       10727   11826   10728   0.
CTRIA3   12212   2       11824   10728   11826   0.
CTRIA3   12213   2       11826   11825   11824   0.
CTRIA3   12214   2       11822   11824   11825   0.
CTRIA3   12215   2       11825   11812   11822   0.
CTRIA3   12220   2       10755   11829   10756   0.
CTRIA3   12221   2       11827   10756   11829   0.
CTRIA3   12222   2       11829   11828   11827   0.
CTRIA3   12223   2       11825   11827   11828   0.
CTRIA3   12224   2       11828   11812   11825   0.
CTRIA3   12225   2       10756   11827   10757   0.
CTRIA3   12226   2       11826   10757   11827   0.
CTRIA3   12227   2       11827   11825   11826   0.
CTRIA3   12228   2       10757   11826   10727   0.
CTRIA3   12229   2       10760   11814   10767   0.
CTRIA3   12230   2       11830   10767   11814   0.
CTRIA3   12231   2       11814   11813   11830   0.
CTRIA3   12232   2       11828   11830   11813   0.
CTRIA3   12233   2       11813   11812   11828   0.
CTRIA3   12234   2       10767   11830   10766   0.
CTRIA3   12235   2       11829   10766   11830   0.
CTRIA3   12236   2       11830   11828   11829   0.
CTRIA3   12237   2       10766   11829   10755   0.
CTRIA3   12246   2       10769   11833   10768   0.
CTRIA3   12274   2       10763   11848   10764   0.
CTRIA3   12283   2       10768   11833   10775   0.
CTRIA3   12284   2       11849   10775   11833   0.
CTRIA3   12288   2       10775   11849   10774   0.
CTRIA3   12289   2       11848   10774   11849   0.
CTRIA3   12291   2       10774   11848   10763   0.
CTRIA3   12292   2       11851   10777   10778   0.
CTRIA3   12294   2       10777   11851   11852   0.
CTRIA3   12304   2       10776   11852   10780   0.
CTRIA3   12322   2       10789   11871   10788   0.
CTRIA3   12323   2       10742   11864   10785   0.
CTRIA3   12324   2       11862   10785   11864   0.
CTRIA3   12325   2       11864   11863   11862   0.
CTRIA3   12332   2       10548   11425   10750   0.
CTRIA3   12333   2       11865   10750   11425   0.
CTRIA3   12334   2       11425   11424   11865   0.
CTRIA3   12335   2       11863   11865   11424   0.
CTRIA3   12336   2       11424   11418   11863   0.
CTRIA3   12337   2       10750   11865   10751   0.
CTRIA3   12338   2       11864   10751   11865   0.
CTRIA3   12339   2       11865   11863   11864   0.
CTRIA3   12340   2       10751   11864   10742   0.
CTRIA3   12341   2       11869   10788   11871   0.
CTRIA3   12342   2       11871   11870   11869   0.
CTRIA3   12343   2       11867   11869   11870   0.
CTRIA3   12344   2       11870   11866   11867   0.
CTRIA3   12345   2       10788   11869   10787   0.
CTRIA3   12346   2       11868   10787   11869   0.
CTRIA3   12347   2       11869   11867   11868   0.
CTRIA3   12348   2       10787   11868   10786   0.
CTRIA3   12349   2       10752   11874   10791   0.
CTRIA3   12350   2       11872   10791   11874   0.
CTRIA3   12351   2       11874   11873   11872   0.
CTRIA3   12352   2       11870   11872   11873   0.
CTRIA3   12353   2       11873   11866   11870   0.
CTRIA3   12354   2       10791   11872   10790   0.
CTRIA3   12355   2       11871   10790   11872   0.
CTRIA3   12356   2       11872   11870   11871   0.
CTRIA3   12357   2       10790   11871   10789   0.
CTRIA3   12358   2       10745   11877   10758   0.
CTRIA3   12359   2       11875   10758   11877   0.
CTRIA3   12360   2       11877   11876   11875   0.
CTRIA3   12361   2       11873   11875   11876   0.
CTRIA3   12362   2       11876   11866   11873   0.
CTRIA3   12363   2       10758   11875   10759   0.
CTRIA3   12364   2       11874   10759   11875   0.
CTRIA3   12365   2       11875   11873   11874   0.
CTRIA3   12366   2       10759   11874   10752   0.
CTRIA3   12367   2       10742   11880   10743   0.
CTRIA3   12368   2       11878   10743   11880   0.
CTRIA3   12369   2       11880   11879   11878   0.
CTRIA3   12370   2       11876   11878   11879   0.
CTRIA3   12371   2       11879   11866   11876   0.
CTRIA3   12372   2       10743   11878   10744   0.
CTRIA3   12373   2       11877   10744   11878   0.
CTRIA3   12374   2       11878   11876   11877   0.
CTRIA3   12375   2       10744   11877   10745   0.
CTRIA3   12378   2       11883   11882   11881   0.
CTRIA3   12379   2       11879   11881   11882   0.
CTRIA3   12380   2       11882   11866   11879   0.
CTRIA3   12382   2       11880   10785   11881   0.
CTRIA3   12383   2       11881   11879   11880   0.
CTRIA3   12384   2       10785   11880   10742   0.
CTRIA3   12387   2       11868   11867   11884   0.
CTRIA3   12388   2       11882   11884   11867   0.
CTRIA3   12389   2       11867   11866   11882   0.
CTRIA3   12392   2       11884   11882   11883   0.
CTRIA3   12394   2       10797   11890   10796   0.
CTRIA3   12395   2       11888   10796   11890   0.
CTRIA3   12396   2       11890   11889   11888   0.
CTRIA3   12397   2       11886   11888   11889   0.
CTRIA3   12398   2       11889   11885   11886   0.
CTRIA3   12399   2       10796   11888   10795   0.
CTRIA3   12400   2       11887   10795   11888   0.
CTRIA3   12401   2       11888   11886   11887   0.
CTRIA3   12402   2       10795   11887   10794   0.
CTRIA3   12403   2       10760   11893   10799   0.
CTRIA3   12404   2       11891   10799   11893   0.
CTRIA3   12405   2       11893   11892   11891   0.
CTRIA3   12406   2       11889   11891   11892   0.
CTRIA3   12407   2       11892   11885   11889   0.
CTRIA3   12408   2       10799   11891   10798   0.
CTRIA3   12409   2       11890   10798   11891   0.
CTRIA3   12410   2       11891   11889   11890   0.
CTRIA3   12411   2       10798   11890   10797   0.
CTRIA3   12412   2       10755   11896   10766   0.
CTRIA3   12413   2       11894   10766   11896   0.
CTRIA3   12414   2       11896   11895   11894   0.
CTRIA3   12415   2       11892   11894   11895   0.
CTRIA3   12416   2       11895   11885   11892   0.
CTRIA3   12417   2       10766   11894   10767   0.
CTRIA3   12418   2       11893   10767   11894   0.
CTRIA3   12419   2       11894   11892   11893   0.
CTRIA3   12420   2       10767   11893   10760   0.
CTRIA3   12421   2       10752   11899   10753   0.
CTRIA3   12422   2       11897   10753   11899   0.
CTRIA3   12423   2       11899   11898   11897   0.
CTRIA3   12424   2       11895   11897   11898   0.
CTRIA3   12425   2       11898   11885   11895   0.
CTRIA3   12426   2       10753   11897   10754   0.
CTRIA3   12427   2       11896   10754   11897   0.
CTRIA3   12428   2       11897   11895   11896   0.
CTRIA3   12429   2       10754   11896   10755   0.
CTRIA3   12430   2       10789   11902   10790   0.
CTRIA3   12431   2       11900   10790   11902   0.
CTRIA3   12432   2       11902   11901   11900   0.
CTRIA3   12433   2       11898   11900   11901   0.
CTRIA3   12434   2       11901   11885   11898   0.
CTRIA3   12435   2       10790   11900   10791   0.
CTRIA3   12436   2       11899   10791   11900   0.
CTRIA3   12437   2       11900   11898   11899   0.
CTRIA3   12438   2       10791   11899   10752   0.
CTRIA3   12439   2       10794   11887   10801   0.
CTRIA3   12440   2       11903   10801   11887   0.
CTRIA3   12441   2       11887   11886   11903   0.
CTRIA3   12442   2       11901   11903   11886   0.
CTRIA3   12443   2       11886   11885   11901   0.
CTRIA3   12444   2       10801   11903   10800   0.
CTRIA3   12445   2       11902   10800   11903   0.
CTRIA3   12446   2       11903   11901   11902   0.
CTRIA3   12447   2       10800   11902   10789   0.
CTRIA3   12448   2       10805   11909   10804   0.
CTRIA3   12449   2       11907   10804   11909   0.
CTRIA3   12450   2       11909   11908   11907   0.
CTRIA3   12451   2       11905   11907   11908   0.
CTRIA3   12452   2       11908   11904   11905   0.
CTRIA3   12453   2       10804   11907   10803   0.
CTRIA3   12454   2       11906   10803   11907   0.
CTRIA3   12455   2       11907   11905   11906   0.
CTRIA3   12456   2       10803   11906   10802   0.
CTRIA3   12457   2       10768   11912   10807   0.
CTRIA3   12458   2       11910   10807   11912   0.
CTRIA3   12459   2       11912   11911   11910   0.
CTRIA3   12460   2       11908   11910   11911   0.
CTRIA3   12461   2       11911   11904   11908   0.
CTRIA3   12462   2       10807   11910   10806   0.
CTRIA3   12463   2       11909   10806   11910   0.
CTRIA3   12464   2       11910   11908   11909   0.
CTRIA3   12465   2       10806   11909   10805   0.
CTRIA3   12466   2       10763   11915   10774   0.
CTRIA3   12467   2       11913   10774   11915   0.
CTRIA3   12468   2       11915   11914   11913   0.
CTRIA3   12469   2       11911   11913   11914   0.
CTRIA3   12470   2       11914   11904   11911   0.
CTRIA3   12471   2       10774   11913   10775   0.
CTRIA3   12472   2       11912   10775   11913   0.
CTRIA3   12473   2       11913   11911   11912   0.
CTRIA3   12474   2       10775   11912   10768   0.
CTRIA3   12475   2       10760   11918   10761   0.
CTRIA3   12476   2       11916   10761   11918   0.
CTRIA3   12477   2       11918   11917   11916   0.
CTRIA3   12478   2       11914   11916   11917   0.
CTRIA3   12479   2       11917   11904   11914   0.
CTRIA3   12480   2       10761   11916   10762   0.
CTRIA3   12481   2       11915   10762   11916   0.
CTRIA3   12482   2       11916   11914   11915   0.
CTRIA3   12483   2       10762   11915   10763   0.
CTRIA3   12484   2       10797   11921   10798   0.
CTRIA3   12485   2       11919   10798   11921   0.
CTRIA3   12486   2       11921   11920   11919   0.
CTRIA3   12487   2       11917   11919   11920   0.
CTRIA3   12488   2       11920   11904   11917   0.
CTRIA3   12489   2       10798   11919   10799   0.
CTRIA3   12490   2       11918   10799   11919   0.
CTRIA3   12491   2       11919   11917   11918   0.
CTRIA3   12492   2       10799   11918   10760   0.
CTRIA3   12493   2       10802   11906   10809   0.
CTRIA3   12494   2       11922   10809   11906   0.
CTRIA3   12495   2       11906   11905   11922   0.
CTRIA3   12496   2       11920   11922   11905   0.
CTRIA3   12497   2       11905   11904   11920   0.
CTRIA3   12498   2       10809   11922   10808   0.
CTRIA3   12499   2       11921   10808   11922   0.
CTRIA3   12500   2       11922   11920   11921   0.
CTRIA3   12501   2       10808   11921   10797   0.
CTRIA3   12502   2       10812   11923   10810   0.
CTRIA3   12503   2       10814   11924   10813   0.
CTRIA3   12504   2       10812   10813   11924   0.
CTRIA3   12505   2       11924   11923   10812   0.
CTRIA3   12510   2       11926   11923   11924   0.
CTRIA3   12514   2       10780   10814   10776   0.
CTRIA3   12515   2       10768   11930   10769   0.
CTRIA3   12516   2       11928   10769   11930   0.
CTRIA3   12517   2       11930   11929   11928   0.
CTRIA3   12518   2       11926   11928   11929   0.
CTRIA3   12519   2       11929   11923   11926   0.
CTRIA3   12524   2       10805   11933   10806   0.
CTRIA3   12525   2       11931   10806   11933   0.
CTRIA3   12526   2       11933   11932   11931   0.
CTRIA3   12527   2       11929   11931   11932   0.
CTRIA3   12528   2       11932   11923   11929   0.
CTRIA3   12529   2       10806   11931   10807   0.
CTRIA3   12530   2       11930   10807   11931   0.
CTRIA3   12531   2       11931   11929   11930   0.
CTRIA3   12532   2       10807   11930   10768   0.
CTRIA3   12533   2       11934   10816   10811   0.
CTRIA3   12534   2       10811   10810   11934   0.
CTRIA3   12535   2       11932   11934   10810   0.
CTRIA3   12536   2       10810   11923   11932   0.
CTRIA3   12537   2       10816   11934   10815   0.
CTRIA3   12538   2       11933   10815   11934   0.
CTRIA3   12539   2       11934   11932   11933   0.
CTRIA3   12540   2       10815   11933   10805   0.
CTRIA3   12541   2       10820   11940   10819   0.
CTRIA3   12542   2       11938   10819   11940   0.
CTRIA3   12543   2       11940   11939   11938   0.
CTRIA3   12544   2       11936   11938   11939   0.
CTRIA3   12546   2       10819   11938   10818   0.
CTRIA3   12547   2       11937   10818   11938   0.
CTRIA3   12548   2       11938   11936   11937   0.
CTRIA3   12549   2       10818   11937   10817   0.
CTRIA3   12550   2       10830   11959   10829   0.
CTRIA3   12551   2       10786   11943   10822   0.
CTRIA3   12552   2       11941   10822   11943   0.
CTRIA3   12553   2       11943   11942   11941   0.
CTRIA3   12554   2       11939   11941   11942   0.
CTRIA3   12556   2       10822   11941   10821   0.
CTRIA3   12557   2       11940   10821   11941   0.
CTRIA3   12558   2       11941   11939   11940   0.
CTRIA3   12559   2       10821   11940   10820   0.
CTRIA3   12587   2       10817   11937   10826   0.
CTRIA3   12588   2       11953   10826   11937   0.
CTRIA3   12589   2       11937   11936   11953   0.
CTRIA3   12596   2       11957   10829   11959   0.
CTRIA3   12597   2       11959   11958   11957   0.
CTRIA3   12598   2       11955   11957   11958   0.
CTRIA3   12599   2       11958   11954   11955   0.
CTRIA3   12600   2       10829   11957   10828   0.
CTRIA3   12601   2       11956   10828   11957   0.
CTRIA3   12602   2       11957   11955   11956   0.
CTRIA3   12603   2       10828   11956   10827   0.
CTRIA3   12604   2       10794   11962   10832   0.
CTRIA3   12605   2       11960   10832   11962   0.
CTRIA3   12606   2       11962   11961   11960   0.
CTRIA3   12607   2       11958   11960   11961   0.
CTRIA3   12608   2       11961   11954   11958   0.
CTRIA3   12609   2       10832   11960   10831   0.
CTRIA3   12610   2       11959   10831   11960   0.
CTRIA3   12611   2       11960   11958   11959   0.
CTRIA3   12612   2       10831   11959   10830   0.
CTRIA3   12613   2       10789   11965   10800   0.
CTRIA3   12614   2       11963   10800   11965   0.
CTRIA3   12615   2       11965   11964   11963   0.
CTRIA3   12616   2       11961   11963   11964   0.
CTRIA3   12617   2       11964   11954   11961   0.
CTRIA3   12618   2       10800   11963   10801   0.
CTRIA3   12619   2       11962   10801   11963   0.
CTRIA3   12620   2       11963   11961   11962   0.
CTRIA3   12621   2       10801   11962   10794   0.
CTRIA3   12622   2       10786   11968   10787   0.
CTRIA3   12623   2       11966   10787   11968   0.
CTRIA3   12624   2       11968   11967   11966   0.
CTRIA3   12625   2       11964   11966   11967   0.
CTRIA3   12626   2       11967   11954   11964   0.
CTRIA3   12627   2       10787   11966   10788   0.
CTRIA3   12628   2       11965   10788   11966   0.
CTRIA3   12629   2       11966   11964   11965   0.
CTRIA3   12630   2       10788   11965   10789   0.
CTRIA3   12631   2       10820   11971   10821   0.
CTRIA3   12632   2       11969   10821   11971   0.
CTRIA3   12633   2       11971   11970   11969   0.
CTRIA3   12634   2       11967   11969   11970   0.
CTRIA3   12635   2       11970   11954   11967   0.
CTRIA3   12636   2       10821   11969   10822   0.
CTRIA3   12637   2       11968   10822   11969   0.
CTRIA3   12638   2       11969   11967   11968   0.
CTRIA3   12639   2       10822   11968   10786   0.
CTRIA3   12640   2       10827   11956   10834   0.
CTRIA3   12641   2       11972   10834   11956   0.
CTRIA3   12642   2       11956   11955   11972   0.
CTRIA3   12643   2       11970   11972   11955   0.
CTRIA3   12644   2       11955   11954   11970   0.
CTRIA3   12645   2       10834   11972   10833   0.
CTRIA3   12646   2       11971   10833   11972   0.
CTRIA3   12647   2       11972   11970   11971   0.
CTRIA3   12648   2       10833   11971   10820   0.
CTRIA3   12649   2       10837   11978   10836   0.
CTRIA3   12650   2       11976   10836   11978   0.
CTRIA3   12651   2       11978   11977   11976   0.
CTRIA3   12652   2       11974   11976   11977   0.
CTRIA3   12653   2       11977   11973   11974   0.
CTRIA3   12654   2       10836   11976   10835   0.
CTRIA3   12655   2       11976   11974   11975   0.
CTRIA3   12656   2       10802   11981   10839   0.
CTRIA3   12657   2       11979   10839   11981   0.
CTRIA3   12658   2       11981   11980   11979   0.
CTRIA3   12659   2       11977   11979   11980   0.
CTRIA3   12660   2       11980   11973   11977   0.
CTRIA3   12661   2       10839   11979   10838   0.
CTRIA3   12662   2       11978   10838   11979   0.
CTRIA3   12663   2       11979   11977   11978   0.
CTRIA3   12664   2       10838   11978   10837   0.
CTRIA3   12665   2       10797   11984   10808   0.
CTRIA3   12666   2       11982   10808   11984   0.
CTRIA3   12667   2       11984   11983   11982   0.
CTRIA3   12668   2       11980   11982   11983   0.
CTRIA3   12669   2       11983   11973   11980   0.
CTRIA3   12670   2       10808   11982   10809   0.
CTRIA3   12671   2       11981   10809   11982   0.
CTRIA3   12672   2       11982   11980   11981   0.
CTRIA3   12673   2       10809   11981   10802   0.
CTRIA3   12674   2       10794   11987   10795   0.
CTRIA3   12675   2       11985   10795   11987   0.
CTRIA3   12676   2       11987   11986   11985   0.
CTRIA3   12677   2       11983   11985   11986   0.
CTRIA3   12678   2       11986   11973   11983   0.
CTRIA3   12679   2       10795   11985   10796   0.
CTRIA3   12680   2       11984   10796   11985   0.
CTRIA3   12681   2       11985   11983   11984   0.
CTRIA3   12682   2       10796   11984   10797   0.
CTRIA3   12683   2       10830   11990   10831   0.
CTRIA3   12684   2       11988   10831   11990   0.
CTRIA3   12685   2       11990   11989   11988   0.
CTRIA3   12686   2       11986   11988   11989   0.
CTRIA3   12687   2       11989   11973   11986   0.
CTRIA3   12688   2       10831   11988   10832   0.
CTRIA3   12689   2       11987   10832   11988   0.
CTRIA3   12690   2       11988   11986   11987   0.
CTRIA3   12691   2       10832   11987   10794   0.
CTRIA3   12692   2       11991   10841   11975   0.
CTRIA3   12693   2       11975   11974   11991   0.
CTRIA3   12694   2       11989   11991   11974   0.
CTRIA3   12695   2       11974   11973   11989   0.
CTRIA3   12696   2       10841   11991   10840   0.
CTRIA3   12697   2       11990   10840   11991   0.
CTRIA3   12698   2       11991   11989   11990   0.
CTRIA3   12699   2       10840   11990   10830   0.
CTRIA3   12700   2       10805   11992   10815   0.
CTRIA3   12701   2       10843   10815   11992   0.
CTRIA3   12702   2       11992   10844   10843   0.
CTRIA3   12703   2       10815   10843   10816   0.
CTRIA3   12704   2       10802   11995   10803   0.
CTRIA3   12705   2       11993   10803   11995   0.
CTRIA3   12706   2       11995   11994   11993   0.
CTRIA3   12707   2       10844   11993   11994   0.
CTRIA3   12708   2       11994   10842   10844   0.
CTRIA3   12709   2       10803   11993   10804   0.
CTRIA3   12710   2       11992   10804   11993   0.
CTRIA3   12711   2       11993   10844   11992   0.
CTRIA3   12712   2       10804   11992   10805   0.
CTRIA3   12713   2       10837   10846   10838   0.
CTRIA3   12714   2       11996   10838   10846   0.
CTRIA3   12715   2       10846   10845   11996   0.
CTRIA3   12716   2       11994   11996   10845   0.
CTRIA3   12717   2       10845   10842   11994   0.
CTRIA3   12718   2       10838   11996   10839   0.
CTRIA3   12719   2       11995   10839   11996   0.
CTRIA3   12720   2       11996   11994   11995   0.
CTRIA3   12721   2       10839   11995   10802   0.
CTRIA3   12722   2       10850   11715   11709   0.
CTRIA3   12723   2       10850   10709   11715   0.
CTRIA3   12724   2       10682   11722   10718   0.
CTRIA3   12725   2       10682   11365   11722   0.
CTRIA3   12726   2       11852   10776   10851   0.
CTRIA3   12727   2       10777   11852   10851   0.
CTRIA3   12728   2       11976   11975   10835   0.
CTRIA3   12729   2       10852   10835   11975   0.
CTRIA3   12730   2       10841   10852   11975   0.
CTRIA3   12731   2       11997   10612   10854   0.
CTRIA3   12732   2       10612   11997   11506   0.
CTRIA3   12733   2       10854   11998   11997   0.
CTRIA3   12734   2       10817   10826   12001   0.
CTRIA3   12735   2       11999   12001   10826   0.
CTRIA3   12736   2       12001   11999   12000   0.
CTRIA3   12737   2       11509   12000   11999   0.
CTRIA3   12738   2       12000   11509   11506   0.
CTRIA3   12740   2       11510   11999   50433   0.
CTRIA3   12741   2       11999   11510   11509   0.
CTRIA3   12743   2       10853   10847   11998   0.
CTRIA3   12744   2       12002   11998   10847   0.
CTRIA3   12745   2       11998   12002   11997   0.
CTRIA3   12746   2       12000   11997   12002   0.
CTRIA3   12747   2       11997   12000   11506   0.
CTRIA3   12748   2       10847   10848   12002   0.
CTRIA3   12749   2       12001   12002   10848   0.
CTRIA3   12750   2       12002   12001   12000   0.
CTRIA3   12751   2       10848   10817   12001   0.
CTRIA3   12752   2       10857   10855   12003   0.
CTRIA3   12753   2       10859   10858   12004   0.
CTRIA3   12754   2       10857   12004   10858   0.
CTRIA3   12755   2       12004   10857   12003   0.
CTRIA3   12756   2       10817   10848   12007   0.
CTRIA3   12757   2       12005   12007   10848   0.
CTRIA3   12758   2       12007   12005   12006   0.
CTRIA3   12759   2       12004   12006   12005   0.
CTRIA3   12760   2       12006   12004   12003   0.
CTRIA3   12761   2       10848   10847   12005   0.
CTRIA3   12762   2       10859   12005   10847   0.
CTRIA3   12763   2       12005   10859   12004   0.
CTRIA3   12764   2       10847   10853   10859   0.
CTRIA3   12765   2       10820   10819   12010   0.
CTRIA3   12766   2       12008   12010   10819   0.
CTRIA3   12767   2       12010   12008   12009   0.
CTRIA3   12768   2       12006   12009   12008   0.
CTRIA3   12769   2       12009   12006   12003   0.
CTRIA3   12770   2       10819   10818   12008   0.
CTRIA3   12771   2       12007   12008   10818   0.
CTRIA3   12772   2       12008   12007   12006   0.
CTRIA3   12773   2       10818   10817   12007   0.
CTRIA3   12774   2       10827   10834   12013   0.
CTRIA3   12775   2       12011   12013   10834   0.
CTRIA3   12776   2       12013   12011   12012   0.
CTRIA3   12777   2       12009   12012   12011   0.
CTRIA3   12778   2       12012   12009   12003   0.
CTRIA3   12779   2       10834   10833   12011   0.
CTRIA3   12780   2       12010   12011   10833   0.
CTRIA3   12781   2       12011   12010   12009   0.
CTRIA3   12782   2       10833   10820   12010   0.
CTRIA3   12783   2       12014   10856   10860   0.
CTRIA3   12784   2       10856   12014   10855   0.
CTRIA3   12785   2       12012   10855   12014   0.
CTRIA3   12786   2       10855   12012   12003   0.
CTRIA3   12787   2       10860   10849   12014   0.
CTRIA3   12788   2       12013   12014   10849   0.
CTRIA3   12789   2       12014   12013   12012   0.
CTRIA3   12790   2       10849   10827   12013   0.
CTRIA3   12791   2       10827   10849   12015   0.
CTRIA3   12792   2       10862   12015   10849   0.
CTRIA3   12793   2       12015   10862   10863   0.
CTRIA3   12794   2       10849   10860   10862   0.
CTRIA3   12795   2       10830   10829   12018   0.
CTRIA3   12796   2       12016   12018   10829   0.
CTRIA3   12797   2       12018   12016   12017   0.
CTRIA3   12798   2       10863   12017   12016   0.
CTRIA3   12799   2       12017   10863   10861   0.
CTRIA3   12800   2       10829   10828   12016   0.
CTRIA3   12801   2       12015   12016   10828   0.
CTRIA3   12802   2       12016   12015   10863   0.
CTRIA3   12803   2       10828   10827   12015   0.
CTRIA3   12804   2       10852   10841   10865   0.
CTRIA3   12805   2       12019   10865   10841   0.
CTRIA3   12806   2       10865   12019   10864   0.
CTRIA3   12807   2       12017   10864   12019   0.
CTRIA3   12808   2       10864   12017   10861   0.
CTRIA3   12809   2       10841   10840   12019   0.
CTRIA3   12810   2       12018   12019   10840   0.
CTRIA3   12811   2       12019   12018   12017   0.
CTRIA3   12812   2       10840   10830   12018   0.
CTRIA3   12813   2       11998   10866   10853   0.
CTRIA3   12814   2       10854   10866   11998   0.
CQUAD4   12815   2       10854   10612   11678   12020   0.
CQUAD4   12816   2       10778   10777   12021   12022   0.
CQUAD4   12817   2       10777   10851   12023   12021   0.
CQUAD4   12818   2       10851   10776   12024   12023   0.
CQUAD4   12819   2       10776   10814   12025   12024   0.
CQUAD4   12820   2       10814   10813   12026   12025   0.
CQUAD4   12821   2       10813   10812   12027   12026   0.
CQUAD4   12822   2       10812   10810   12028   12027   0.
CQUAD4   12823   2       10810   10811   12029   12028   0.
CQUAD4   12824   2       10811   10816   12030   12029   0.
CQUAD4   12825   2       10816   10843   12031   12030   0.
CQUAD4   12826   2       10843   10844   12032   12031   0.
CQUAD4   12827   2       10844   10842   12033   12032   0.
CQUAD4   12828   2       10842   10845   12034   12033   0.
CQUAD4   12829   2       10845   10846   12035   12034   0.
CQUAD4   12830   2       10846   10837   12036   12035   0.
CQUAD4   12831   2       10837   10836   12037   12036   0.
CQUAD4   12832   2       10836   10835   12038   12037   0.
CQUAD4   12833   2       10835   10852   12039   12038   0.
CQUAD4   12834   2       10852   10865   12040   12039   0.
CQUAD4   12835   2       10865   10864   12041   12040   0.
CQUAD4   12836   2       10864   10861   12042   12041   0.
CQUAD4   12837   2       10861   10863   12043   12042   0.
CQUAD4   12838   2       10863   10862   12044   12043   0.
CQUAD4   12839   2       10862   10860   12045   12044   0.
CQUAD4   12840   2       10860   10856   12046   12045   0.
CQUAD4   12841   2       10856   10855   12047   12046   0.
CQUAD4   12842   2       10855   10857   12048   12047   0.
CQUAD4   12843   2       10857   10858   12049   12048   0.
CQUAD4   12844   2       10858   10859   12050   12049   0.
CQUAD4   12845   2       10859   10853   12051   12050   0.
CQUAD4   12846   2       10853   10866   12052   12051   0.
CQUAD4   12847   2       10866   10854   12020   12052   0.
CTRIA3   12848   2       10876   12058   10875   0.
CTRIA3   12849   2       12056   10875   12058   0.
CTRIA3   12850   2       12058   12057   12056   0.
CTRIA3   12851   2       12054   12056   12057   0.
CTRIA3   12852   2       12057   12053   12054   0.
CTRIA3   12853   2       10875   12056   10874   0.
CTRIA3   12854   2       12055   10874   12056   0.
CTRIA3   12855   2       12056   12054   12055   0.
CTRIA3   12856   2       10874   12055   10873   0.
CTRIA3   12857   2       10870   12060   10871   0.
CTRIA3   12858   2       10877   10871   12060   0.
CTRIA3   12859   2       12060   12059   10877   0.
CTRIA3   12860   2       10873   12055   10879   0.
CTRIA3   12861   2       12061   10879   12055   0.
CTRIA3   12862   2       12055   12054   12061   0.
CTRIA3   12863   2       12059   12061   12054   0.
CTRIA3   12864   2       12054   12053   12059   0.
CTRIA3   12865   2       10879   12061   10878   0.
CTRIA3   12866   2       12060   10878   12061   0.
CTRIA3   12867   2       12061   12059   12060   0.
CTRIA3   12868   2       10878   12060   10870   0.
CTRIA3   12869   2       10883   12064   10882   0.
CTRIA3   12870   2       12062   10882   12064   0.
CTRIA3   12871   2       12064   12063   12062   0.
CTRIA3   12872   2       11713   12062   12063   0.
CTRIA3   12873   2       12063   11709   11713   0.
CTRIA3   12874   2       10882   12062   10881   0.
CTRIA3   12875   2       11714   10881   12062   0.
CTRIA3   12876   2       12062   11713   11714   0.
CTRIA3   12878   2       10890   12073   10889   0.
CTRIA3   12879   2       10867   12067   10885   0.
CTRIA3   12880   2       12065   10885   12067   0.
CTRIA3   12881   2       12067   12066   12065   0.
CTRIA3   12882   2       12063   12065   12066   0.
CTRIA3   12883   2       12066   11709   12063   0.
CTRIA3   12884   2       10885   12065   10884   0.
CTRIA3   12885   2       12064   10884   12065   0.
CTRIA3   12886   2       12065   12063   12064   0.
CTRIA3   12887   2       10884   12064   10883   0.
CTRIA3   12888   2       12067   10872   10886   0.
CTRIA3   12889   2       10886   12066   12067   0.
CTRIA3   12890   2       10872   12067   10867   0.
CTRIA3   12891   2       12071   10889   12073   0.
CTRIA3   12892   2       12073   12072   12071   0.
CTRIA3   12893   2       12069   12071   12072   0.
CTRIA3   12894   2       12072   12068   12069   0.
CTRIA3   12895   2       10889   12071   10888   0.
CTRIA3   12896   2       12070   10888   12071   0.
CTRIA3   12897   2       12071   12069   12070   0.
CTRIA3   12899   2       10873   12076   10892   0.
CTRIA3   12900   2       12074   10892   12076   0.
CTRIA3   12901   2       12076   12075   12074   0.
CTRIA3   12902   2       12072   12074   12075   0.
CTRIA3   12903   2       12075   12068   12072   0.
CTRIA3   12904   2       10892   12074   10891   0.
CTRIA3   12905   2       12073   10891   12074   0.
CTRIA3   12906   2       12074   12072   12073   0.
CTRIA3   12907   2       10891   12073   10890   0.
CTRIA3   12908   2       10870   12079   10878   0.
CTRIA3   12909   2       12077   10878   12079   0.
CTRIA3   12910   2       12079   12078   12077   0.
CTRIA3   12911   2       12075   12077   12078   0.
CTRIA3   12912   2       12078   12068   12075   0.
CTRIA3   12913   2       10878   12077   10879   0.
CTRIA3   12914   2       12076   10879   12077   0.
CTRIA3   12915   2       12077   12075   12076   0.
CTRIA3   12916   2       10879   12076   10873   0.
CTRIA3   12917   2       10867   12082   10868   0.
CTRIA3   12918   2       12080   10868   12082   0.
CTRIA3   12919   2       12082   12081   12080   0.
CTRIA3   12920   2       12078   12080   12081   0.
CTRIA3   12921   2       12081   12068   12078   0.
CTRIA3   12922   2       10868   12080   10869   0.
CTRIA3   12923   2       12079   10869   12080   0.
CTRIA3   12924   2       12080   12078   12079   0.
CTRIA3   12925   2       10869   12079   10870   0.
CTRIA3   12926   2       10883   12085   10884   0.
CTRIA3   12927   2       12083   10884   12085   0.
CTRIA3   12928   2       12085   12084   12083   0.
CTRIA3   12929   2       12081   12083   12084   0.
CTRIA3   12930   2       12084   12068   12081   0.
CTRIA3   12931   2       10884   12083   10885   0.
CTRIA3   12932   2       12082   10885   12083   0.
CTRIA3   12933   2       12083   12081   12082   0.
CTRIA3   12934   2       10885   12082   10867   0.
CTRIA3   12936   2       12086   10894   12070   0.
CTRIA3   12937   2       12070   12069   12086   0.
CTRIA3   12938   2       12084   12086   12069   0.
CTRIA3   12939   2       12069   12068   12084   0.
CTRIA3   12940   2       10894   12086   10893   0.
CTRIA3   12941   2       12085   10893   12086   0.
CTRIA3   12942   2       12086   12084   12085   0.
CTRIA3   12943   2       10893   12085   10883   0.
CTRIA3   12944   2       10898   12092   10897   0.
CTRIA3   12945   2       12090   10897   12092   0.
CTRIA3   12946   2       12092   12091   12090   0.
CTRIA3   12947   2       12088   12090   12091   0.
CTRIA3   12948   2       12091   12087   12088   0.
CTRIA3   12949   2       10897   12090   10896   0.
CTRIA3   12950   2       12089   10896   12090   0.
CTRIA3   12951   2       12090   12088   12089   0.
CTRIA3   12952   2       10896   12089   10895   0.
CTRIA3   12953   2       10880   12095   10900   0.
CTRIA3   12954   2       12093   10900   12095   0.
CTRIA3   12955   2       12095   12094   12093   0.
CTRIA3   12956   2       12091   12093   12094   0.
CTRIA3   12957   2       12094   12087   12091   0.
CTRIA3   12958   2       10900   12093   10899   0.
CTRIA3   12959   2       12092   10899   12093   0.
CTRIA3   12960   2       12093   12091   12092   0.
CTRIA3   12961   2       10899   12092   10898   0.
CTRIA3   12962   2       10876   12098   11084   0.
CTRIA3   12963   2       12096   11084   12098   0.
CTRIA3   12964   2       12098   12097   12096   0.
CTRIA3   12965   2       12094   12096   12097   0.
CTRIA3   12966   2       12097   12087   12094   0.
CTRIA3   12967   2       11084   12096   11085   0.
CTRIA3   12968   2       12095   11085   12096   0.
CTRIA3   12969   2       12096   12094   12095   0.
CTRIA3   12970   2       11085   12095   10880   0.
CTRIA3   12971   2       10873   12101   10874   0.
CTRIA3   12972   2       12099   10874   12101   0.
CTRIA3   12973   2       12101   12100   12099   0.
CTRIA3   12974   2       12097   12099   12100   0.
CTRIA3   12975   2       12100   12087   12097   0.
CTRIA3   12976   2       10874   12099   10875   0.
CTRIA3   12977   2       12098   10875   12099   0.
CTRIA3   12978   2       12099   12097   12098   0.
CTRIA3   12979   2       10875   12098   10876   0.
CTRIA3   12980   2       10890   12104   10891   0.
CTRIA3   12981   2       12102   10891   12104   0.
CTRIA3   12982   2       12104   12103   12102   0.
CTRIA3   12983   2       12100   12102   12103   0.
CTRIA3   12984   2       12103   12087   12100   0.
CTRIA3   12985   2       10891   12102   10892   0.
CTRIA3   12986   2       12101   10892   12102   0.
CTRIA3   12987   2       12102   12100   12101   0.
CTRIA3   12988   2       10892   12101   10873   0.
CTRIA3   12989   2       10895   12089   10902   0.
CTRIA3   12990   2       12105   10902   12089   0.
CTRIA3   12991   2       12089   12088   12105   0.
CTRIA3   12992   2       12103   12105   12088   0.
CTRIA3   12993   2       12088   12087   12103   0.
CTRIA3   12994   2       10902   12105   10901   0.
CTRIA3   12995   2       12104   10901   12105   0.
CTRIA3   12996   2       12105   12103   12104   0.
CTRIA3   12997   2       10901   12104   10890   0.
CTRIA3   13007   2       10898   12116   10899   0.
CTRIA3   13008   2       12114   10899   12116   0.
CTRIA3   13009   2       12116   12115   12114   0.
CTRIA3   13010   2       12112   12114   12115   0.
CTRIA3   13011   2       12115   12106   12112   0.
CTRIA3   13012   2       10899   12114   10900   0.
CTRIA3   13013   2       12113   10900   12114   0.
CTRIA3   13014   2       12114   12112   12113   0.
CTRIA3   13015   2       10900   12113   10880   0.
CTRIA3   13022   2       12116   10907   12117   0.
CTRIA3   13023   2       12117   12115   12116   0.
CTRIA3   13024   2       10907   12116   10898   0.
CTRIA3   13034   2       10923   12142   10922   0.
CTRIA3   13044   2       10883   12129   10893   0.
CTRIA3   13061   2       10882   12129   10883   0.
CTRIA3   13088   2       10895   12145   10925   0.
CTRIA3   13089   2       12143   10925   12145   0.
CTRIA3   13093   2       10925   12143   10924   0.
CTRIA3   13094   2       12142   10924   12143   0.
CTRIA3   13096   2       10924   12142   10923   0.
CTRIA3   13097   2       10890   12148   10901   0.
CTRIA3   13105   2       10902   12145   10895   0.
CTRIA3   13114   2       10889   12148   10890   0.
CTRIA3   13133   2       10931   12161   10930   0.
CTRIA3   13134   2       12159   10930   12161   0.
CTRIA3   13135   2       12161   12160   12159   0.
CTRIA3   13136   2       12157   12159   12160   0.
CTRIA3   13137   2       12160   12156   12157   0.
CTRIA3   13138   2       10930   12159   10929   0.
CTRIA3   13139   2       12158   10929   12159   0.
CTRIA3   13140   2       12159   12157   12158   0.
CTRIA3   13141   2       10929   12158   10928   0.
CTRIA3   13144   2       12164   12163   12162   0.
CTRIA3   13145   2       12160   12162   12163   0.
CTRIA3   13146   2       12163   12156   12160   0.
CTRIA3   13148   2       12161   50482   12162   0.
CTRIA3   13149   2       12162   12160   12161   0.
CTRIA3   13150   2       50482   12161   10931   0.
CTRIA3   13151   2       10898   12167   10907   0.
CTRIA3   13152   2       12165   10907   12167   0.
CTRIA3   13153   2       12167   12166   12165   0.
CTRIA3   13154   2       12163   12165   12166   0.
CTRIA3   13155   2       12166   12156   12163   0.
CTRIA3   13157   2       12164   50478   12165   0.
CTRIA3   13158   2       12165   12163   12164   0.
CTRIA3   13160   2       10895   12170   10896   0.
CTRIA3   13161   2       12168   10896   12170   0.
CTRIA3   13162   2       12170   12169   12168   0.
CTRIA3   13163   2       12166   12168   12169   0.
CTRIA3   13164   2       12169   12156   12166   0.
CTRIA3   13165   2       10896   12168   10897   0.
CTRIA3   13166   2       12167   10897   12168   0.
CTRIA3   13167   2       12168   12166   12167   0.
CTRIA3   13168   2       10897   12167   10898   0.
CTRIA3   13169   2       10923   12173   10924   0.
CTRIA3   13170   2       12171   10924   12173   0.
CTRIA3   13171   2       12173   12172   12171   0.
CTRIA3   13172   2       12169   12171   12172   0.
CTRIA3   13173   2       12172   12156   12169   0.
CTRIA3   13174   2       10924   12171   10925   0.
CTRIA3   13175   2       12170   10925   12171   0.
CTRIA3   13176   2       12171   12169   12170   0.
CTRIA3   13177   2       10925   12170   10895   0.
CTRIA3   13178   2       10928   12158   10935   0.
CTRIA3   13179   2       12174   10935   12158   0.
CTRIA3   13180   2       12158   12157   12174   0.
CTRIA3   13181   2       12172   12174   12157   0.
CTRIA3   13182   2       12157   12156   12172   0.
CTRIA3   13183   2       10935   12174   10934   0.
CTRIA3   13184   2       12173   10934   12174   0.
CTRIA3   13185   2       12174   12172   12173   0.
CTRIA3   13186   2       10934   12173   10923   0.
CTRIA3   13187   2       10939   12180   10938   0.
CTRIA3   13188   2       12178   10938   12180   0.
CTRIA3   13189   2       12180   12179   12178   0.
CTRIA3   13190   2       12176   12178   12179   0.
CTRIA3   13191   2       12179   12175   12176   0.
CTRIA3   13192   2       10938   12178   10937   0.
CTRIA3   13193   2       12177   10937   12178   0.
CTRIA3   13194   2       12178   12176   12177   0.
CTRIA3   13195   2       10937   12177   10936   0.
CTRIA3   13201   2       10941   12181   10940   0.
CTRIA3   13202   2       12180   10940   12181   0.
CTRIA3   13203   2       12181   12179   12180   0.
CTRIA3   13204   2       10940   12180   10939   0.
CTRIA3   13232   2       10936   12177   10943   0.
CTRIA3   13233   2       12193   10943   12177   0.
CTRIA3   13234   2       12177   12176   12193   0.
CTRIA3   13235   2       12191   12193   12176   0.
CTRIA3   13236   2       12176   12175   12191   0.
CTRIA3   13237   2       10943   12193   10942   0.
CTRIA3   13238   2       12192   10942   12193   0.
CTRIA3   13239   2       12193   12191   12192   0.
CTRIA3   13240   2       10942   12192   10931   0.
CTRIA3   13241   2       12195   10945   10946   0.
CTRIA3   13242   2       10946   12194   12195   0.
CTRIA3   13243   2       10945   12195   12196   0.
CTRIA3   13244   2       10939   12201   10940   0.
CTRIA3   13245   2       12199   10940   12201   0.
CTRIA3   13246   2       12201   12200   12199   0.
CTRIA3   13247   2       12197   12199   12200   0.
CTRIA3   13248   2       12200   12194   12197   0.
CTRIA3   13249   2       10940   12199   10941   0.
CTRIA3   13250   2       12198   10941   12199   0.
CTRIA3   13253   2       10944   12196   10948   0.
CTRIA3   13254   2       12202   10948   12196   0.
CTRIA3   13255   2       12196   12195   12202   0.
CTRIA3   13256   2       12200   12202   12195   0.
CTRIA3   13257   2       12195   12194   12200   0.
CTRIA3   13258   2       10948   12202   10947   0.
CTRIA3   13259   2       12201   10947   12202   0.
CTRIA3   13260   2       12202   12200   12201   0.
CTRIA3   13261   2       10947   12201   10939   0.
CTRIA3   13343   2       10965   12234   10964   0.
CTRIA3   13344   2       12232   10964   12234   0.
CTRIA3   13345   2       12234   12233   12232   0.
CTRIA3   13346   2       12230   12232   12233   0.
CTRIA3   13347   2       12233   12229   12230   0.
CTRIA3   13348   2       10964   12232   10963   0.
CTRIA3   13349   2       12231   10963   12232   0.
CTRIA3   13350   2       12232   12230   12231   0.
CTRIA3   13351   2       10963   12231   10962   0.
CTRIA3   13352   2       10928   12237   10967   0.
CTRIA3   13353   2       12235   10967   12237   0.
CTRIA3   13354   2       12237   12236   12235   0.
CTRIA3   13355   2       12233   12235   12236   0.
CTRIA3   13356   2       12236   12229   12233   0.
CTRIA3   13357   2       10967   12235   10966   0.
CTRIA3   13358   2       12234   10966   12235   0.
CTRIA3   13359   2       12235   12233   12234   0.
CTRIA3   13360   2       10966   12234   10965   0.
CTRIA3   13361   2       10923   12240   10934   0.
CTRIA3   13362   2       12238   10934   12240   0.
CTRIA3   13363   2       12240   12239   12238   0.
CTRIA3   13364   2       12236   12238   12239   0.
CTRIA3   13365   2       12239   12229   12236   0.
CTRIA3   13366   2       10934   12238   10935   0.
CTRIA3   13367   2       12237   10935   12238   0.
CTRIA3   13368   2       12238   12236   12237   0.
CTRIA3   13369   2       10935   12237   10928   0.
CTRIA3   13373   2       12239   12241   12242   0.
CTRIA3   13374   2       12242   12229   12239   0.
CTRIA3   13376   2       12240   10922   12241   0.
CTRIA3   13377   2       12241   12239   12240   0.
CTRIA3   13378   2       10922   12240   10923   0.
CTRIA3   13383   2       12245   12229   12242   0.
CTRIA3   13388   2       10962   12231   10969   0.
CTRIA3   13389   2       12247   10969   12231   0.
CTRIA3   13390   2       12231   12230   12247   0.
CTRIA3   13391   2       12245   12247   12230   0.
CTRIA3   13392   2       12230   12229   12245   0.
CTRIA3   13397   2       10973   12253   10972   0.
CTRIA3   13398   2       12251   10972   12253   0.
CTRIA3   13399   2       12253   12252   12251   0.
CTRIA3   13400   2       12249   12251   12252   0.
CTRIA3   13401   2       12252   12248   12249   0.
CTRIA3   13402   2       10972   12251   10971   0.
CTRIA3   13403   2       12250   10971   12251   0.
CTRIA3   13404   2       12251   12249   12250   0.
CTRIA3   13405   2       10971   12250   10970   0.
CTRIA3   13406   2       10936   12256   10975   0.
CTRIA3   13407   2       12254   10975   12256   0.
CTRIA3   13408   2       12256   12255   12254   0.
CTRIA3   13409   2       12252   12254   12255   0.
CTRIA3   13410   2       12255   12248   12252   0.
CTRIA3   13411   2       10975   12254   10974   0.
CTRIA3   13412   2       12253   10974   12254   0.
CTRIA3   13413   2       12254   12252   12253   0.
CTRIA3   13414   2       10974   12253   10973   0.
CTRIA3   13415   2       10931   12259   10942   0.
CTRIA3   13416   2       12257   10942   12259   0.
CTRIA3   13417   2       12259   12258   12257   0.
CTRIA3   13418   2       12255   12257   12258   0.
CTRIA3   13419   2       12258   12248   12255   0.
CTRIA3   13420   2       10942   12257   10943   0.
CTRIA3   13421   2       12256   10943   12257   0.
CTRIA3   13422   2       12257   12255   12256   0.
CTRIA3   13423   2       10943   12256   10936   0.
CTRIA3   13424   2       10928   12262   10929   0.
CTRIA3   13425   2       12260   10929   12262   0.
CTRIA3   13426   2       12262   12261   12260   0.
CTRIA3   13427   2       12258   12260   12261   0.
CTRIA3   13428   2       12261   12248   12258   0.
CTRIA3   13429   2       10929   12260   10930   0.
CTRIA3   13430   2       12259   10930   12260   0.
CTRIA3   13431   2       12260   12258   12259   0.
CTRIA3   13432   2       10930   12259   10931   0.
CTRIA3   13433   2       10965   12265   10966   0.
CTRIA3   13434   2       12263   10966   12265   0.
CTRIA3   13435   2       12265   12264   12263   0.
CTRIA3   13436   2       12261   12263   12264   0.
CTRIA3   13437   2       12264   12248   12261   0.
CTRIA3   13438   2       10966   12263   10967   0.
CTRIA3   13439   2       12262   10967   12263   0.
CTRIA3   13440   2       12263   12261   12262   0.
CTRIA3   13441   2       10967   12262   10928   0.
CTRIA3   13442   2       10970   12250   10977   0.
CTRIA3   13443   2       12266   10977   12250   0.
CTRIA3   13444   2       12250   12249   12266   0.
CTRIA3   13445   2       12264   12266   12249   0.
CTRIA3   13446   2       12249   12248   12264   0.
CTRIA3   13447   2       10977   12266   10976   0.
CTRIA3   13448   2       12265   10976   12266   0.
CTRIA3   13449   2       12266   12264   12265   0.
CTRIA3   13450   2       10976   12265   10965   0.
CTRIA3   13451   2       10980   12267   10978   0.
CTRIA3   13452   2       10982   12268   10981   0.
CTRIA3   13453   2       10980   10981   12268   0.
CTRIA3   13454   2       12268   12267   10980   0.
CTRIA3   13455   2       10939   12271   10947   0.
CTRIA3   13456   2       12269   10947   12271   0.
CTRIA3   13457   2       12271   12270   12269   0.
CTRIA3   13458   2       12268   12269   12270   0.
CTRIA3   13459   2       12270   12267   12268   0.
CTRIA3   13460   2       10947   12269   10948   0.
CTRIA3   13461   2       10982   10948   12269   0.
CTRIA3   13462   2       12269   12268   10982   0.
CTRIA3   13463   2       10948   10982   10944   0.
CTRIA3   13464   2       10936   12274   10937   0.
CTRIA3   13465   2       12272   10937   12274   0.
CTRIA3   13466   2       12274   12273   12272   0.
CTRIA3   13467   2       12270   12272   12273   0.
CTRIA3   13468   2       12273   12267   12270   0.
CTRIA3   13469   2       10937   12272   10938   0.
CTRIA3   13470   2       12271   10938   12272   0.
CTRIA3   13471   2       12272   12270   12271   0.
CTRIA3   13472   2       10938   12271   10939   0.
CTRIA3   13473   2       10973   12277   10974   0.
CTRIA3   13474   2       12275   10974   12277   0.
CTRIA3   13475   2       12277   12276   12275   0.
CTRIA3   13476   2       12273   12275   12276   0.
CTRIA3   13477   2       12276   12267   12273   0.
CTRIA3   13478   2       10974   12275   10975   0.
CTRIA3   13479   2       12274   10975   12275   0.
CTRIA3   13480   2       12275   12273   12274   0.
CTRIA3   13481   2       10975   12274   10936   0.
CTRIA3   13482   2       12278   10984   10979   0.
CTRIA3   13483   2       10979   10978   12278   0.
CTRIA3   13484   2       12276   12278   10978   0.
CTRIA3   13485   2       10978   12267   12276   0.
CTRIA3   13486   2       10984   12278   10983   0.
CTRIA3   13487   2       12277   10983   12278   0.
CTRIA3   13488   2       12278   12276   12277   0.
CTRIA3   13489   2       10983   12277   10973   0.
CTRIA3   13499   2       10998   12303   10997   0.
CTRIA3   13553   2       10962   12306   11000   0.
CTRIA3   13554   2       12304   11000   12306   0.
CTRIA3   13558   2       11000   12304   10999   0.
CTRIA3   13559   2       12303   10999   12304   0.
CTRIA3   13561   2       10999   12303   10998   0.
CTRIA3   13570   2       10969   12306   10962   0.
CTRIA3   13598   2       11005   12322   11004   0.
CTRIA3   13599   2       12320   11004   12322   0.
CTRIA3   13600   2       12322   12321   12320   0.
CTRIA3   13601   2       12318   12320   12321   0.
CTRIA3   13602   2       12321   12317   12318   0.
CTRIA3   13603   2       11004   12320   11003   0.
CTRIA3   13604   2       12320   12318   12319   0.
CTRIA3   13605   2       10970   12325   11007   0.
CTRIA3   13606   2       12323   11007   12325   0.
CTRIA3   13607   2       12325   12324   12323   0.
CTRIA3   13608   2       12321   12323   12324   0.
CTRIA3   13609   2       12324   12317   12321   0.
CTRIA3   13610   2       11007   12323   11006   0.
CTRIA3   13611   2       12322   11006   12323   0.
CTRIA3   13612   2       12323   12321   12322   0.
CTRIA3   13613   2       11006   12322   11005   0.
CTRIA3   13614   2       10965   12328   10976   0.
CTRIA3   13615   2       12326   10976   12328   0.
CTRIA3   13616   2       12328   12327   12326   0.
CTRIA3   13617   2       12324   12326   12327   0.
CTRIA3   13618   2       12327   12317   12324   0.
CTRIA3   13619   2       10976   12326   10977   0.
CTRIA3   13620   2       12325   10977   12326   0.
CTRIA3   13621   2       12326   12324   12325   0.
CTRIA3   13622   2       10977   12325   10970   0.
CTRIA3   13623   2       10962   12331   10963   0.
CTRIA3   13624   2       12329   10963   12331   0.
CTRIA3   13625   2       12331   12330   12329   0.
CTRIA3   13626   2       12327   12329   12330   0.
CTRIA3   13627   2       12330   12317   12327   0.
CTRIA3   13628   2       10963   12329   10964   0.
CTRIA3   13629   2       12328   10964   12329   0.
CTRIA3   13630   2       12329   12327   12328   0.
CTRIA3   13631   2       10964   12328   10965   0.
CTRIA3   13632   2       10998   12334   10999   0.
CTRIA3   13633   2       12332   10999   12334   0.
CTRIA3   13634   2       12334   12333   12332   0.
CTRIA3   13635   2       12330   12332   12333   0.
CTRIA3   13636   2       12333   12317   12330   0.
CTRIA3   13637   2       10999   12332   11000   0.
CTRIA3   13638   2       12331   11000   12332   0.
CTRIA3   13639   2       12332   12330   12331   0.
CTRIA3   13640   2       11000   12331   10962   0.
CTRIA3   13641   2       12335   11009   12319   0.
CTRIA3   13642   2       12319   12318   12335   0.
CTRIA3   13643   2       12333   12335   12318   0.
CTRIA3   13644   2       12318   12317   12333   0.
CTRIA3   13645   2       11009   12335   11008   0.
CTRIA3   13646   2       12334   11008   12335   0.
CTRIA3   13647   2       12335   12333   12334   0.
CTRIA3   13648   2       11008   12334   10998   0.
CTRIA3   13649   2       10973   12336   10983   0.
CTRIA3   13650   2       11011   10983   12336   0.
CTRIA3   13651   2       12336   11012   11011   0.
CTRIA3   13652   2       10983   11011   10984   0.
CTRIA3   13653   2       10970   12339   10971   0.
CTRIA3   13654   2       12337   10971   12339   0.
CTRIA3   13655   2       12339   12338   12337   0.
CTRIA3   13656   2       11012   12337   12338   0.
CTRIA3   13657   2       12338   11010   11012   0.
CTRIA3   13658   2       10971   12337   10972   0.
CTRIA3   13659   2       12336   10972   12337   0.
CTRIA3   13660   2       12337   11012   12336   0.
CTRIA3   13661   2       10972   12336   10973   0.
CTRIA3   13662   2       11005   11014   11006   0.
CTRIA3   13663   2       12340   11006   11014   0.
CTRIA3   13664   2       11014   11013   12340   0.
CTRIA3   13665   2       12338   12340   11013   0.
CTRIA3   13666   2       11013   11010   12338   0.
CTRIA3   13667   2       11006   12340   11007   0.
CTRIA3   13668   2       12339   11007   12340   0.
CTRIA3   13669   2       12340   12338   12339   0.
CTRIA3   13670   2       11007   12339   10970   0.
CTRIA3   13671   2       11018   12059   12053   0.
CTRIA3   13672   2       11018   10877   12059   0.
CTRIA3   13673   2       10850   12066   10886   0.
CTRIA3   13674   2       10850   11709   12066   0.
CTRIA3   13675   2       12196   10944   11019   0.
CTRIA3   13676   2       10945   12196   11019   0.
CTRIA3   13677   2       12320   12319   11003   0.
CTRIA3   13678   2       11020   11003   12319   0.
CTRIA3   13679   2       11009   11020   12319   0.
CTRIA3   13680   2       12341   10778   11022   0.
CTRIA3   13682   2       11022   12342   12341   0.
CTRIA3   13692   2       11021   11015   12342   0.
CTRIA3   13702   2       11027   11026   12348   0.
CTRIA3   13703   2       11025   12348   11026   0.
CTRIA3   13713   2       11015   11021   11027   0.
CTRIA3   13744   2       10998   10997   12362   0.
CTRIA3   13745   2       12360   12362   10997   0.
CTRIA3   13746   2       12362   12360   12361   0.
CTRIA3   13747   2       11031   12361   12360   0.
CTRIA3   13748   2       12361   11031   11029   0.
CTRIA3   13753   2       11020   11009   11033   0.
CTRIA3   13754   2       12363   11033   11009   0.
CTRIA3   13755   2       11033   12363   11032   0.
CTRIA3   13756   2       12361   11032   12363   0.
CTRIA3   13757   2       11032   12361   11029   0.
CTRIA3   13758   2       11009   11008   12363   0.
CTRIA3   13759   2       12362   12363   11008   0.
CTRIA3   13760   2       12363   12362   12361   0.
CTRIA3   13761   2       11008   10998   12362   0.
CTRIA3   13762   2       12342   11034   11021   0.
CTRIA3   13763   2       11022   11034   12342   0.
CQUAD4   13764   2       11022   10778   12022   12364   0.
CQUAD4   13765   2       10946   10945   12365   12366   0.
CQUAD4   13766   2       10945   11019   12367   12365   0.
CQUAD4   13767   2       11019   10944   12368   12367   0.
CQUAD4   13768   2       10944   10982   12369   12368   0.
CQUAD4   13769   2       10982   10981   12370   12369   0.
CQUAD4   13770   2       10981   10980   12371   12370   0.
CQUAD4   13771   2       10980   10978   12372   12371   0.
CQUAD4   13772   2       10978   10979   12373   12372   0.
CQUAD4   13773   2       10979   10984   12374   12373   0.
CQUAD4   13774   2       10984   11011   12375   12374   0.
CQUAD4   13775   2       11011   11012   12376   12375   0.
CQUAD4   13776   2       11012   11010   12377   12376   0.
CQUAD4   13777   2       11010   11013   12378   12377   0.
CQUAD4   13778   2       11013   11014   12379   12378   0.
CQUAD4   13779   2       11014   11005   12380   12379   0.
CQUAD4   13780   2       11005   11004   12381   12380   0.
CQUAD4   13781   2       11004   11003   12382   12381   0.
CQUAD4   13782   2       11003   11020   12383   12382   0.
CQUAD4   13783   2       11020   11033   12384   12383   0.
CQUAD4   13784   2       11033   11032   12385   12384   0.
CQUAD4   13785   2       11032   11029   12386   12385   0.
CQUAD4   13786   2       11029   11031   12387   12386   0.
CQUAD4   13789   2       11028   11024   12390   12389   0.
CQUAD4   13790   2       11024   11023   12391   12390   0.
CQUAD4   13791   2       11023   11025   12392   12391   0.
CQUAD4   13792   2       11025   11026   12393   12392   0.
CQUAD4   13793   2       11026   11027   12394   12393   0.
CQUAD4   13794   2       11027   11021   12395   12394   0.
CQUAD4   13795   2       11021   11034   12396   12395   0.
CQUAD4   13796   2       11034   11022   12364   12396   0.
CTRIA3   13798   2       12400   11043   12402   0.
CTRIA3   13799   2       12402   12401   12400   0.
CTRIA3   13800   2       12398   12400   12401   0.
CTRIA3   13801   2       12401   12397   12398   0.
CTRIA3   13802   2       11043   12400   11042   0.
CTRIA3   13803   2       12399   11042   12400   0.
CTRIA3   13804   2       12400   12398   12399   0.
CTRIA3   13805   2       11042   12399   11041   0.
CTRIA3   13806   2       11038   12404   11039   0.
CTRIA3   13807   2       11045   11039   12404   0.
CTRIA3   13808   2       12404   12403   11045   0.
CTRIA3   13809   2       11041   12399   11047   0.
CTRIA3   13810   2       12405   11047   12399   0.
CTRIA3   13811   2       12399   12398   12405   0.
CTRIA3   13812   2       12403   12405   12398   0.
CTRIA3   13813   2       12398   12397   12403   0.
CTRIA3   13814   2       11047   12405   11046   0.
CTRIA3   13815   2       12404   11046   12405   0.
CTRIA3   13816   2       12405   12403   12404   0.
CTRIA3   13817   2       11046   12404   11038   0.
CTRIA3   13818   2       11051   12408   11050   0.
CTRIA3   13819   2       12406   11050   12408   0.
CTRIA3   13820   2       12408   12407   12406   0.
CTRIA3   13821   2       12057   12406   12407   0.
CTRIA3   13822   2       12407   12053   12057   0.
CTRIA3   13823   2       11050   12406   11049   0.
CTRIA3   13824   2       12058   11049   12406   0.
CTRIA3   13825   2       12406   12057   12058   0.
CTRIA3   13826   2       11049   12058   10876   0.
CTRIA3   13827   2       11058   12417   11057   0.
CTRIA3   13828   2       11035   12411   11053   0.
CTRIA3   13829   2       12409   11053   12411   0.
CTRIA3   13830   2       12411   12410   12409   0.
CTRIA3   13831   2       12407   12409   12410   0.
CTRIA3   13832   2       12410   12053   12407   0.
CTRIA3   13833   2       11053   12409   11052   0.
CTRIA3   13834   2       12408   11052   12409   0.
CTRIA3   13835   2       12409   12407   12408   0.
CTRIA3   13836   2       11052   12408   11051   0.
CTRIA3   13837   2       12411   11040   11054   0.
CTRIA3   13838   2       11054   12410   12411   0.
CTRIA3   13839   2       11040   12411   11035   0.
CTRIA3   13840   2       12415   11057   12417   0.
CTRIA3   13841   2       12417   12416   12415   0.
CTRIA3   13842   2       12413   12415   12416   0.
CTRIA3   13843   2       12416   12412   12413   0.
CTRIA3   13844   2       11057   12415   11056   0.
CTRIA3   13845   2       12414   11056   12415   0.
CTRIA3   13846   2       12415   12413   12414   0.
CTRIA3   13847   2       11056   12414   11055   0.
CTRIA3   13848   2       11041   12420   11060   0.
CTRIA3   13849   2       12418   11060   12420   0.
CTRIA3   13850   2       12420   12419   12418   0.
CTRIA3   13851   2       12416   12418   12419   0.
CTRIA3   13852   2       12419   12412   12416   0.
CTRIA3   13853   2       11060   12418   11059   0.
CTRIA3   13854   2       12417   11059   12418   0.
CTRIA3   13855   2       12418   12416   12417   0.
CTRIA3   13856   2       11059   12417   11058   0.
CTRIA3   13857   2       11038   12423   11046   0.
CTRIA3   13858   2       12421   11046   12423   0.
CTRIA3   13859   2       12423   12422   12421   0.
CTRIA3   13860   2       12419   12421   12422   0.
CTRIA3   13861   2       12422   12412   12419   0.
CTRIA3   13862   2       11046   12421   11047   0.
CTRIA3   13863   2       12420   11047   12421   0.
CTRIA3   13864   2       12421   12419   12420   0.
CTRIA3   13865   2       11047   12420   11041   0.
CTRIA3   13866   2       11035   12426   11036   0.
CTRIA3   13867   2       12424   11036   12426   0.
CTRIA3   13868   2       12426   12425   12424   0.
CTRIA3   13869   2       12422   12424   12425   0.
CTRIA3   13870   2       12425   12412   12422   0.
CTRIA3   13871   2       11036   12424   11037   0.
CTRIA3   13872   2       12423   11037   12424   0.
CTRIA3   13873   2       12424   12422   12423   0.
CTRIA3   13874   2       11037   12423   11038   0.
CTRIA3   13875   2       11051   12429   11052   0.
CTRIA3   13876   2       12427   11052   12429   0.
CTRIA3   13877   2       12429   12428   12427   0.
CTRIA3   13878   2       12425   12427   12428   0.
CTRIA3   13879   2       12428   12412   12425   0.
CTRIA3   13880   2       11052   12427   11053   0.
CTRIA3   13881   2       12426   11053   12427   0.
CTRIA3   13882   2       12427   12425   12426   0.
CTRIA3   13883   2       11053   12426   11035   0.
CTRIA3   13884   2       11055   12414   11062   0.
CTRIA3   13885   2       12430   11062   12414   0.
CTRIA3   13886   2       12414   12413   12430   0.
CTRIA3   13887   2       12428   12430   12413   0.
CTRIA3   13888   2       12413   12412   12428   0.
CTRIA3   13889   2       11062   12430   11061   0.
CTRIA3   13890   2       12429   11061   12430   0.
CTRIA3   13891   2       12430   12428   12429   0.
CTRIA3   13892   2       11061   12429   11051   0.
CTRIA3   13896   2       12432   12434   12435   0.
CTRIA3   13897   2       12435   12431   12432   0.
CTRIA3   13898   2       11065   12434   11064   0.
CTRIA3   13899   2       12433   11064   12434   0.
CTRIA3   13900   2       12434   12432   12433   0.
CTRIA3   13901   2       11064   12433   11063   0.
CTRIA3   13920   2       11041   12445   11042   0.
CTRIA3   13921   2       12443   11042   12445   0.
CTRIA3   13922   2       12445   12444   12443   0.
CTRIA3   13923   2       12441   12443   12444   0.
CTRIA3   13924   2       12444   12431   12441   0.
CTRIA3   13925   2       11042   12443   11043   0.
CTRIA3   13929   2       11058   12448   11059   0.
CTRIA3   13930   2       12446   11059   12448   0.
CTRIA3   13931   2       12448   12447   12446   0.
CTRIA3   13932   2       12444   12446   12447   0.
CTRIA3   13933   2       12447   12431   12444   0.
CTRIA3   13934   2       11059   12446   11060   0.
CTRIA3   13935   2       12445   11060   12446   0.
CTRIA3   13936   2       12446   12444   12445   0.
CTRIA3   13937   2       11060   12445   11041   0.
CTRIA3   13938   2       11063   12433   11070   0.
CTRIA3   13939   2       12449   11070   12433   0.
CTRIA3   13940   2       12433   12432   12449   0.
CTRIA3   13941   2       12447   12449   12432   0.
CTRIA3   13942   2       12432   12431   12447   0.
CTRIA3   13943   2       11070   12449   11069   0.
CTRIA3   13944   2       12448   11069   12449   0.
CTRIA3   13945   2       12449   12447   12448   0.
CTRIA3   13946   2       11069   12448   11058   0.
CTRIA3   13974   2       11081   12467   11080   0.
CTRIA3   13975   2       12465   11080   12467   0.
CTRIA3   13976   2       12467   12466   12465   0.
CTRIA3   13977   2       12463   12465   12466   0.
CTRIA3   13978   2       12466   12462   12463   0.
CTRIA3   13979   2       11080   12465   11079   0.
CTRIA3   13980   2       12464   11079   12465   0.
CTRIA3   13981   2       12465   12463   12464   0.
CTRIA3   13982   2       11079   12464   11078   0.
CTRIA3   13983   2       11091   12486   11090   0.
CTRIA3   13984   2       11055   12470   11083   0.
CTRIA3   13985   2       12468   11083   12470   0.
CTRIA3   13986   2       12470   12469   12468   0.
CTRIA3   13987   2       12466   12468   12469   0.
CTRIA3   13988   2       12469   12462   12466   0.
CTRIA3   13989   2       11083   12468   11082   0.
CTRIA3   13990   2       12467   11082   12468   0.
CTRIA3   13991   2       12468   12466   12467   0.
CTRIA3   13992   2       11082   12467   11081   0.
CTRIA3   13993   2       11051   12473   11061   0.
CTRIA3   13994   2       12471   11061   12473   0.
CTRIA3   13995   2       12473   12472   12471   0.
CTRIA3   13996   2       12469   12471   12472   0.
CTRIA3   13997   2       12472   12462   12469   0.
CTRIA3   13998   2       11061   12471   11062   0.
CTRIA3   13999   2       12470   11062   12471   0.
CTRIA3   14000   2       12471   12469   12470   0.
CTRIA3   14001   2       11062   12470   11055   0.
CTRIA3   14002   2       10876   12476   11049   0.
CTRIA3   14003   2       12474   11049   12476   0.
CTRIA3   14004   2       12476   12475   12474   0.
CTRIA3   14005   2       12472   12474   12475   0.
CTRIA3   14006   2       12475   12462   12472   0.
CTRIA3   14007   2       11049   12474   11050   0.
CTRIA3   14008   2       12473   11050   12474   0.
CTRIA3   14009   2       12474   12472   12473   0.
CTRIA3   14010   2       11050   12473   11051   0.
CTRIA3   14011   2       10880   12479   11085   0.
CTRIA3   14012   2       12477   11085   12479   0.
CTRIA3   14013   2       12479   12478   12477   0.
CTRIA3   14014   2       12475   12477   12478   0.
CTRIA3   14015   2       12478   12462   12475   0.
CTRIA3   14016   2       11085   12477   11084   0.
CTRIA3   14017   2       12476   11084   12477   0.
CTRIA3   14018   2       12477   12475   12476   0.
CTRIA3   14019   2       11084   12476   10876   0.
CTRIA3   14020   2       11078   12464   11087   0.
CTRIA3   14021   2       12480   11087   12464   0.
CTRIA3   14022   2       12464   12463   12480   0.
CTRIA3   14023   2       12478   12480   12463   0.
CTRIA3   14024   2       12463   12462   12478   0.
CTRIA3   14025   2       11087   12480   11086   0.
CTRIA3   14026   2       12479   11086   12480   0.
CTRIA3   14027   2       12480   12478   12479   0.
CTRIA3   14028   2       11086   12479   10880   0.
CTRIA3   14029   2       12484   11090   12486   0.
CTRIA3   14030   2       12486   12485   12484   0.
CTRIA3   14031   2       12482   12484   12485   0.
CTRIA3   14032   2       12485   12481   12482   0.
CTRIA3   14033   2       11090   12484   11089   0.
CTRIA3   14034   2       12483   11089   12484   0.
CTRIA3   14035   2       12484   12482   12483   0.
CTRIA3   14037   2       11063   12489   11093   0.
CTRIA3   14038   2       12487   11093   12489   0.
CTRIA3   14039   2       12489   12488   12487   0.
CTRIA3   14040   2       12485   12487   12488   0.
CTRIA3   14041   2       12488   12481   12485   0.
CTRIA3   14042   2       11093   12487   11092   0.
CTRIA3   14043   2       12486   11092   12487   0.
CTRIA3   14044   2       12487   12485   12486   0.
CTRIA3   14045   2       11092   12486   11091   0.
CTRIA3   14046   2       11058   12492   11069   0.
CTRIA3   14047   2       12490   11069   12492   0.
CTRIA3   14048   2       12492   12491   12490   0.
CTRIA3   14049   2       12488   12490   12491   0.
CTRIA3   14050   2       12491   12481   12488   0.
CTRIA3   14051   2       11069   12490   11070   0.
CTRIA3   14052   2       12489   11070   12490   0.
CTRIA3   14053   2       12490   12488   12489   0.
CTRIA3   14054   2       11070   12489   11063   0.
CTRIA3   14055   2       11055   12495   11056   0.
CTRIA3   14056   2       12493   11056   12495   0.
CTRIA3   14057   2       12495   12494   12493   0.
CTRIA3   14058   2       12491   12493   12494   0.
CTRIA3   14059   2       12494   12481   12491   0.
CTRIA3   14060   2       11056   12493   11057   0.
CTRIA3   14061   2       12492   11057   12493   0.
CTRIA3   14062   2       12493   12491   12492   0.
CTRIA3   14063   2       11057   12492   11058   0.
CTRIA3   14064   2       11081   12498   11082   0.
CTRIA3   14065   2       12496   11082   12498   0.
CTRIA3   14066   2       12498   12497   12496   0.
CTRIA3   14067   2       12494   12496   12497   0.
CTRIA3   14068   2       12497   12481   12494   0.
CTRIA3   14069   2       11082   12496   11083   0.
CTRIA3   14070   2       12495   11083   12496   0.
CTRIA3   14071   2       12496   12494   12495   0.
CTRIA3   14072   2       11083   12495   11055   0.
CTRIA3   14074   2       12499   50475   12483   0.
CTRIA3   14075   2       12483   12482   12499   0.
CTRIA3   14076   2       12497   12499   12482   0.
CTRIA3   14077   2       12482   12481   12497   0.
CTRIA3   14078   2       50475   12499   11094   0.
CTRIA3   14079   2       12498   11094   12499   0.
CTRIA3   14080   2       12499   12497   12498   0.
CTRIA3   14081   2       11094   12498   11081   0.
CTRIA3   14085   2       12501   12503   12504   0.
CTRIA3   14086   2       12504   12500   12501   0.
CTRIA3   14087   2       11098   12503   11097   0.
CTRIA3   14088   2       12502   11097   12503   0.
CTRIA3   14089   2       12503   12501   12502   0.
CTRIA3   14090   2       11097   12502   11096   0.
CTRIA3   14109   2       11063   12514   11064   0.
CTRIA3   14110   2       12512   11064   12514   0.
CTRIA3   14111   2       12514   12513   12512   0.
CTRIA3   14112   2       12510   12512   12513   0.
CTRIA3   14113   2       12513   12500   12510   0.
CTRIA3   14114   2       11064   12512   11065   0.
CTRIA3   14118   2       11091   12517   11092   0.
CTRIA3   14119   2       12515   11092   12517   0.
CTRIA3   14120   2       12517   12516   12515   0.
CTRIA3   14121   2       12513   12515   12516   0.
CTRIA3   14122   2       12516   12500   12513   0.
CTRIA3   14123   2       11092   12515   11093   0.
CTRIA3   14124   2       12514   11093   12515   0.
CTRIA3   14125   2       12515   12513   12514   0.
CTRIA3   14126   2       11093   12514   11063   0.
CTRIA3   14127   2       11096   12502   11103   0.
CTRIA3   14128   2       12518   11103   12502   0.
CTRIA3   14129   2       12502   12501   12518   0.
CTRIA3   14130   2       12516   12518   12501   0.
CTRIA3   14131   2       12501   12500   12516   0.
CTRIA3   14132   2       11103   12518   11102   0.
CTRIA3   14133   2       12517   11102   12518   0.
CTRIA3   14134   2       12518   12516   12517   0.
CTRIA3   14135   2       11102   12517   11091   0.
CTRIA3   14190   2       12539   11113   11114   0.
CTRIA3   14191   2       11114   12538   12539   0.
CTRIA3   14192   2       11113   12539   12540   0.
CTRIA3   14202   2       11112   12540   11116   0.
CTRIA3   14203   2       12546   11116   12540   0.
CTRIA3   14204   2       12540   12539   12546   0.
CTRIA3   14205   2       12544   12546   12539   0.
CTRIA3   14206   2       12539   12538   12544   0.
CTRIA3   14207   2       11116   12546   11115   0.
CTRIA3   14208   2       12545   11115   12546   0.
CTRIA3   14209   2       12546   12544   12545   0.
CTRIA3   14210   2       11115   12545   11107   0.
CTRIA3   14220   2       11125   12559   11124   0.
CTRIA3   14221   2       11078   12552   11121   0.
CTRIA3   14222   2       12550   11121   12552   0.
CTRIA3   14223   2       12552   12551   12550   0.
CTRIA3   14230   2       10880   12113   11086   0.
CTRIA3   14231   2       12553   11086   12113   0.
CTRIA3   14232   2       12113   12112   12553   0.
CTRIA3   14233   2       12551   12553   12112   0.
CTRIA3   14234   2       12112   12106   12551   0.
CTRIA3   14235   2       11086   12553   11087   0.
CTRIA3   14236   2       12552   11087   12553   0.
CTRIA3   14237   2       12553   12551   12552   0.
CTRIA3   14238   2       11087   12552   11078   0.
CTRIA3   14239   2       12557   11124   12559   0.
CTRIA3   14243   2       11124   12557   11123   0.
CTRIA3   14244   2       50477   11123   12557   0.
CTRIA3   14252   2       11127   12560   11126   0.
CTRIA3   14253   2       12559   11126   12560   0.
CTRIA3   14255   2       11126   12559   11125   0.
CTRIA3   14256   2       11081   12565   11094   0.
CTRIA3   14265   2       11078   12568   11079   0.
CTRIA3   14266   2       12566   11079   12568   0.
CTRIA3   14270   2       11079   12566   11080   0.
CTRIA3   14271   2       12565   11080   12566   0.
CTRIA3   14273   2       11080   12565   11081   0.
CTRIA3   14282   2       11121   12568   11078   0.
CTRIA3   14292   2       11133   12578   11132   0.
CTRIA3   14293   2       12576   11132   12578   0.
CTRIA3   14294   2       12578   12577   12576   0.
CTRIA3   14295   2       12574   12576   12577   0.
CTRIA3   14296   2       12577   12573   12574   0.
CTRIA3   14297   2       11132   12576   11131   0.
CTRIA3   14298   2       12575   11131   12576   0.
CTRIA3   14299   2       12576   12574   12575   0.
CTRIA3   14300   2       11131   12575   11130   0.
CTRIA3   14301   2       11096   12581   11135   0.
CTRIA3   14302   2       12579   11135   12581   0.
CTRIA3   14303   2       12581   12580   12579   0.
CTRIA3   14304   2       12577   12579   12580   0.
CTRIA3   14305   2       12580   12573   12577   0.
CTRIA3   14306   2       11135   12579   11134   0.
CTRIA3   14307   2       12578   11134   12579   0.
CTRIA3   14308   2       12579   12577   12578   0.
CTRIA3   14309   2       11134   12578   11133   0.
CTRIA3   14310   2       11091   12584   11102   0.
CTRIA3   14311   2       12582   11102   12584   0.
CTRIA3   14312   2       12584   12583   12582   0.
CTRIA3   14313   2       12580   12582   12583   0.
CTRIA3   14314   2       12583   12573   12580   0.
CTRIA3   14315   2       11102   12582   11103   0.
CTRIA3   14316   2       12581   11103   12582   0.
CTRIA3   14317   2       12582   12580   12581   0.
CTRIA3   14318   2       11103   12581   11096   0.
CTRIA3   14320   2       12585   11089   12587   0.
CTRIA3   14321   2       12587   12586   12585   0.
CTRIA3   14322   2       12583   12585   12586   0.
CTRIA3   14323   2       12586   12573   12583   0.
CTRIA3   14324   2       11089   12585   11090   0.
CTRIA3   14325   2       12584   11090   12585   0.
CTRIA3   14326   2       12585   12583   12584   0.
CTRIA3   14327   2       11090   12584   11091   0.
CTRIA3   14328   2       11125   12590   11126   0.
CTRIA3   14329   2       12588   11126   12590   0.
CTRIA3   14330   2       12590   12589   12588   0.
CTRIA3   14331   2       12586   12588   12589   0.
CTRIA3   14332   2       12589   12573   12586   0.
CTRIA3   14333   2       11126   12588   11127   0.
CTRIA3   14334   2       12587   11127   12588   0.
CTRIA3   14335   2       12588   12586   12587   0.
CTRIA3   14337   2       11130   12575   11137   0.
CTRIA3   14338   2       12591   11137   12575   0.
CTRIA3   14339   2       12575   12574   12591   0.
CTRIA3   14340   2       12589   12591   12574   0.
CTRIA3   14341   2       12574   12573   12589   0.
CTRIA3   14342   2       11137   12591   11136   0.
CTRIA3   14343   2       12590   11136   12591   0.
CTRIA3   14344   2       12591   12589   12590   0.
CTRIA3   14345   2       11136   12590   11125   0.
CTRIA3   14346   2       11141   12597   11140   0.
CTRIA3   14347   2       12595   11140   12597   0.
CTRIA3   14348   2       12597   12596   12595   0.
CTRIA3   14349   2       12593   12595   12596   0.
CTRIA3   14350   2       12596   12592   12593   0.
CTRIA3   14351   2       11140   12595   11139   0.
CTRIA3   14352   2       12594   11139   12595   0.
CTRIA3   14353   2       12595   12593   12594   0.
CTRIA3   14354   2       11139   12594   11138   0.
CTRIA3   14355   2       11104   12600   11143   0.
CTRIA3   14356   2       12598   11143   12600   0.
CTRIA3   14357   2       12600   12599   12598   0.
CTRIA3   14358   2       12596   12598   12599   0.
CTRIA3   14359   2       12599   12592   12596   0.
CTRIA3   14360   2       11143   12598   11142   0.
CTRIA3   14361   2       12597   11142   12598   0.
CTRIA3   14362   2       12598   12596   12597   0.
CTRIA3   14363   2       11142   12597   11141   0.
CTRIA3   14365   2       12601   11110   12603   0.
CTRIA3   14366   2       12603   12602   12601   0.
CTRIA3   14367   2       12599   12601   12602   0.
CTRIA3   14368   2       12602   12592   12599   0.
CTRIA3   14371   2       12601   12599   12600   0.
CTRIA3   14373   2       11096   12606   11097   0.
CTRIA3   14374   2       12604   11097   12606   0.
CTRIA3   14375   2       12606   12605   12604   0.
CTRIA3   14376   2       12602   12604   12605   0.
CTRIA3   14377   2       12605   12592   12602   0.
CTRIA3   14378   2       11097   12604   11098   0.
CTRIA3   14379   2       12603   11098   12604   0.
CTRIA3   14380   2       12604   12602   12603   0.
CTRIA3   14382   2       11133   12609   11134   0.
CTRIA3   14383   2       12607   11134   12609   0.
CTRIA3   14384   2       12609   12608   12607   0.
CTRIA3   14385   2       12605   12607   12608   0.
CTRIA3   14386   2       12608   12592   12605   0.
CTRIA3   14387   2       11134   12607   11135   0.
CTRIA3   14388   2       12606   11135   12607   0.
CTRIA3   14389   2       12607   12605   12606   0.
CTRIA3   14390   2       11135   12606   11096   0.
CTRIA3   14391   2       11138   12594   11145   0.
CTRIA3   14392   2       12610   11145   12594   0.
CTRIA3   14393   2       12594   12593   12610   0.
CTRIA3   14394   2       12608   12610   12593   0.
CTRIA3   14395   2       12593   12592   12608   0.
CTRIA3   14396   2       11145   12610   11144   0.
CTRIA3   14397   2       12609   11144   12610   0.
CTRIA3   14398   2       12610   12608   12609   0.
CTRIA3   14399   2       11144   12609   11133   0.
CTRIA3   14400   2       11148   12611   11146   0.
CTRIA3   14401   2       11150   12612   11149   0.
CTRIA3   14402   2       11148   11149   12612   0.
CTRIA3   14403   2       12612   12611   11148   0.
CTRIA3   14404   2       11107   12615   11115   0.
CTRIA3   14405   2       12613   11115   12615   0.
CTRIA3   14406   2       12615   12614   12613   0.
CTRIA3   14407   2       12612   12613   12614   0.
CTRIA3   14408   2       12614   12611   12612   0.
CTRIA3   14409   2       11115   12613   11116   0.
CTRIA3   14410   2       11150   11116   12613   0.
CTRIA3   14411   2       12613   12612   11150   0.
CTRIA3   14412   2       11116   11150   11112   0.
CTRIA3   14413   2       11104   12618   11105   0.
CTRIA3   14414   2       12616   11105   12618   0.
CTRIA3   14415   2       12618   12617   12616   0.
CTRIA3   14416   2       12614   12616   12617   0.
CTRIA3   14417   2       12617   12611   12614   0.
CTRIA3   14418   2       11105   12616   11106   0.
CTRIA3   14419   2       12615   11106   12616   0.
CTRIA3   14420   2       12616   12614   12615   0.
CTRIA3   14421   2       11106   12615   11107   0.
CTRIA3   14422   2       11141   12621   11142   0.
CTRIA3   14423   2       12619   11142   12621   0.
CTRIA3   14424   2       12621   12620   12619   0.
CTRIA3   14425   2       12617   12619   12620   0.
CTRIA3   14426   2       12620   12611   12617   0.
CTRIA3   14427   2       11142   12619   11143   0.
CTRIA3   14428   2       12618   11143   12619   0.
CTRIA3   14429   2       12619   12617   12618   0.
CTRIA3   14430   2       11143   12618   11104   0.
CTRIA3   14431   2       12622   11152   11147   0.
CTRIA3   14432   2       11147   11146   12622   0.
CTRIA3   14433   2       12620   12622   11146   0.
CTRIA3   14434   2       11146   12611   12620   0.
CTRIA3   14435   2       11152   12622   11151   0.
CTRIA3   14436   2       12621   11151   12622   0.
CTRIA3   14437   2       12622   12620   12621   0.
CTRIA3   14438   2       11151   12621   11141   0.
CTRIA3   14439   2       11156   12628   11155   0.
CTRIA3   14440   2       12626   11155   12628   0.
CTRIA3   14441   2       12628   12627   12626   0.
CTRIA3   14442   2       12624   12626   12627   0.
CTRIA3   14444   2       11155   12626   11154   0.
CTRIA3   14445   2       12625   11154   12626   0.
CTRIA3   14446   2       12626   12624   12625   0.
CTRIA3   14447   2       11154   12625   11153   0.
CTRIA3   14448   2       11166   12647   11165   0.
CTRIA3   14449   2       11122   12631   11158   0.
CTRIA3   14450   2       12629   11158   12631   0.
CTRIA3   14451   2       12631   12630   12629   0.
CTRIA3   14452   2       12627   12629   12630   0.
CTRIA3   14454   2       11158   12629   11157   0.
CTRIA3   14455   2       12628   11157   12629   0.
CTRIA3   14456   2       12629   12627   12628   0.
CTRIA3   14457   2       11157   12628   11156   0.
CTRIA3   14485   2       11153   12625   11162   0.
CTRIA3   14486   2       12641   11162   12625   0.
CTRIA3   14487   2       12625   12624   12641   0.
CTRIA3   14494   2       12645   11165   12647   0.
CTRIA3   14495   2       12647   12646   12645   0.
CTRIA3   14496   2       12643   12645   12646   0.
CTRIA3   14497   2       12646   12642   12643   0.
CTRIA3   14498   2       11165   12645   11164   0.
CTRIA3   14499   2       12644   11164   12645   0.
CTRIA3   14500   2       12645   12643   12644   0.
CTRIA3   14501   2       11164   12644   11163   0.
CTRIA3   14502   2       11130   12650   11168   0.
CTRIA3   14503   2       12648   11168   12650   0.
CTRIA3   14504   2       12650   12649   12648   0.
CTRIA3   14505   2       12646   12648   12649   0.
CTRIA3   14506   2       12649   12642   12646   0.
CTRIA3   14507   2       11168   12648   11167   0.
CTRIA3   14508   2       12647   11167   12648   0.
CTRIA3   14509   2       12648   12646   12647   0.
CTRIA3   14510   2       11167   12647   11166   0.
CTRIA3   14511   2       11125   12653   11136   0.
CTRIA3   14512   2       12651   11136   12653   0.
CTRIA3   14513   2       12653   12652   12651   0.
CTRIA3   14514   2       12649   12651   12652   0.
CTRIA3   14515   2       12652   12642   12649   0.
CTRIA3   14516   2       11136   12651   11137   0.
CTRIA3   14517   2       12650   11137   12651   0.
CTRIA3   14518   2       12651   12649   12650   0.
CTRIA3   14519   2       11137   12650   11130   0.
CTRIA3   14520   2       11122   12656   11123   0.
CTRIA3   14521   2       12654   11123   12656   0.
CTRIA3   14522   2       12656   12655   12654   0.
CTRIA3   14523   2       12652   12654   12655   0.
CTRIA3   14524   2       12655   12642   12652   0.
CTRIA3   14525   2       11123   12654   11124   0.
CTRIA3   14526   2       12653   11124   12654   0.
CTRIA3   14527   2       12654   12652   12653   0.
CTRIA3   14528   2       11124   12653   11125   0.
CTRIA3   14529   2       11156   12659   11157   0.
CTRIA3   14530   2       12657   11157   12659   0.
CTRIA3   14531   2       12659   12658   12657   0.
CTRIA3   14532   2       12655   12657   12658   0.
CTRIA3   14533   2       12658   12642   12655   0.
CTRIA3   14534   2       11157   12657   11158   0.
CTRIA3   14535   2       12656   11158   12657   0.
CTRIA3   14536   2       12657   12655   12656   0.
CTRIA3   14537   2       11158   12656   11122   0.
CTRIA3   14538   2       11163   12644   11170   0.
CTRIA3   14539   2       12660   11170   12644   0.
CTRIA3   14540   2       12644   12643   12660   0.
CTRIA3   14541   2       12658   12660   12643   0.
CTRIA3   14542   2       12643   12642   12658   0.
CTRIA3   14543   2       11170   12660   11169   0.
CTRIA3   14544   2       12659   11169   12660   0.
CTRIA3   14545   2       12660   12658   12659   0.
CTRIA3   14546   2       11169   12659   11156   0.
CTRIA3   14547   2       11173   12666   11172   0.
CTRIA3   14548   2       12664   11172   12666   0.
CTRIA3   14549   2       12666   12665   12664   0.
CTRIA3   14550   2       12662   12664   12665   0.
CTRIA3   14551   2       12665   12661   12662   0.
CTRIA3   14552   2       11172   12664   11171   0.
CTRIA3   14553   2       12664   12662   12663   0.
CTRIA3   14554   2       11138   12669   11175   0.
CTRIA3   14555   2       12667   11175   12669   0.
CTRIA3   14556   2       12669   12668   12667   0.
CTRIA3   14557   2       12665   12667   12668   0.
CTRIA3   14558   2       12668   12661   12665   0.
CTRIA3   14559   2       11175   12667   11174   0.
CTRIA3   14560   2       12666   11174   12667   0.
CTRIA3   14561   2       12667   12665   12666   0.
CTRIA3   14562   2       11174   12666   11173   0.
CTRIA3   14563   2       11133   12672   11144   0.
CTRIA3   14564   2       12670   11144   12672   0.
CTRIA3   14565   2       12672   12671   12670   0.
CTRIA3   14566   2       12668   12670   12671   0.
CTRIA3   14567   2       12671   12661   12668   0.
CTRIA3   14568   2       11144   12670   11145   0.
CTRIA3   14569   2       12669   11145   12670   0.
CTRIA3   14570   2       12670   12668   12669   0.
CTRIA3   14571   2       11145   12669   11138   0.
CTRIA3   14572   2       11130   12675   11131   0.
CTRIA3   14573   2       12673   11131   12675   0.
CTRIA3   14574   2       12675   12674   12673   0.
CTRIA3   14575   2       12671   12673   12674   0.
CTRIA3   14576   2       12674   12661   12671   0.
CTRIA3   14577   2       11131   12673   11132   0.
CTRIA3   14578   2       12672   11132   12673   0.
CTRIA3   14579   2       12673   12671   12672   0.
CTRIA3   14580   2       11132   12672   11133   0.
CTRIA3   14581   2       11166   12678   11167   0.
CTRIA3   14582   2       12676   11167   12678   0.
CTRIA3   14583   2       12678   12677   12676   0.
CTRIA3   14584   2       12674   12676   12677   0.
CTRIA3   14585   2       12677   12661   12674   0.
CTRIA3   14586   2       11167   12676   11168   0.
CTRIA3   14587   2       12675   11168   12676   0.
CTRIA3   14588   2       12676   12674   12675   0.
CTRIA3   14589   2       11168   12675   11130   0.
CTRIA3   14590   2       12679   11177   12663   0.
CTRIA3   14591   2       12663   12662   12679   0.
CTRIA3   14592   2       12677   12679   12662   0.
CTRIA3   14593   2       12662   12661   12677   0.
CTRIA3   14594   2       11177   12679   11176   0.
CTRIA3   14595   2       12678   11176   12679   0.
CTRIA3   14596   2       12679   12677   12678   0.
CTRIA3   14597   2       11176   12678   11166   0.
CTRIA3   14598   2       11141   12680   11151   0.
CTRIA3   14599   2       11179   11151   12680   0.
CTRIA3   14600   2       12680   11180   11179   0.
CTRIA3   14601   2       11151   11179   11152   0.
CTRIA3   14602   2       11138   12683   11139   0.
CTRIA3   14603   2       12681   11139   12683   0.
CTRIA3   14604   2       12683   12682   12681   0.
CTRIA3   14605   2       11180   12681   12682   0.
CTRIA3   14606   2       12682   11178   11180   0.
CTRIA3   14607   2       11139   12681   11140   0.
CTRIA3   14608   2       12680   11140   12681   0.
CTRIA3   14609   2       12681   11180   12680   0.
CTRIA3   14610   2       11140   12680   11141   0.
CTRIA3   14611   2       11173   11182   11174   0.
CTRIA3   14612   2       12684   11174   11182   0.
CTRIA3   14613   2       11182   11181   12684   0.
CTRIA3   14614   2       12682   12684   11181   0.
CTRIA3   14615   2       11181   11178   12682   0.
CTRIA3   14616   2       11174   12684   11175   0.
CTRIA3   14617   2       12683   11175   12684   0.
CTRIA3   14618   2       12684   12682   12683   0.
CTRIA3   14619   2       11175   12683   11138   0.
CTRIA3   14620   2       11186   12403   12397   0.
CTRIA3   14621   2       11186   11045   12403   0.
CTRIA3   14622   2       11018   12410   11054   0.
CTRIA3   14623   2       11018   12053   12410   0.
CTRIA3   14624   2       12540   11112   11187   0.
CTRIA3   14625   2       11113   12540   11187   0.
CTRIA3   14626   2       12664   12663   11171   0.
CTRIA3   14627   2       11188   11171   12663   0.
CTRIA3   14628   2       11177   11188   12663   0.
CTRIA3   14629   2       12685   10946   11190   0.
CTRIA3   14630   2       10946   12685   12194   0.
CTRIA3   14631   2       11190   12686   12685   0.
CTRIA3   14632   2       11153   11162   12689   0.
CTRIA3   14633   2       12687   12689   11162   0.
CTRIA3   14634   2       12689   12687   12688   0.
CTRIA3   14635   2       12197   12688   12687   0.
CTRIA3   14636   2       12688   12197   12194   0.
CTRIA3   14638   2       12198   12687   50480   0.
CTRIA3   14641   2       11189   11183   12686   0.
CTRIA3   14642   2       12690   12686   11183   0.
CTRIA3   14643   2       12686   12690   12685   0.
CTRIA3   14644   2       12688   12685   12690   0.
CTRIA3   14645   2       12685   12688   12194   0.
CTRIA3   14646   2       11183   11184   12690   0.
CTRIA3   14647   2       12689   12690   11184   0.
CTRIA3   14648   2       12690   12689   12688   0.
CTRIA3   14649   2       11184   11153   12689   0.
CTRIA3   14650   2       11193   11191   12691   0.
CTRIA3   14651   2       11195   11194   12692   0.
CTRIA3   14652   2       11193   12692   11194   0.
CTRIA3   14653   2       12692   11193   12691   0.
CTRIA3   14654   2       11153   11184   12695   0.
CTRIA3   14655   2       12693   12695   11184   0.
CTRIA3   14656   2       12695   12693   12694   0.
CTRIA3   14657   2       12692   12694   12693   0.
CTRIA3   14658   2       12694   12692   12691   0.
CTRIA3   14659   2       11184   11183   12693   0.
CTRIA3   14660   2       11195   12693   11183   0.
CTRIA3   14661   2       12693   11195   12692   0.
CTRIA3   14662   2       11183   11189   11195   0.
CTRIA3   14663   2       11156   11155   12698   0.
CTRIA3   14664   2       12696   12698   11155   0.
CTRIA3   14665   2       12698   12696   12697   0.
CTRIA3   14666   2       12694   12697   12696   0.
CTRIA3   14667   2       12697   12694   12691   0.
CTRIA3   14668   2       11155   11154   12696   0.
CTRIA3   14669   2       12695   12696   11154   0.
CTRIA3   14670   2       12696   12695   12694   0.
CTRIA3   14671   2       11154   11153   12695   0.
CTRIA3   14672   2       11163   11170   12701   0.
CTRIA3   14673   2       12699   12701   11170   0.
CTRIA3   14674   2       12701   12699   12700   0.
CTRIA3   14675   2       12697   12700   12699   0.
CTRIA3   14676   2       12700   12697   12691   0.
CTRIA3   14677   2       11170   11169   12699   0.
CTRIA3   14678   2       12698   12699   11169   0.
CTRIA3   14679   2       12699   12698   12697   0.
CTRIA3   14680   2       11169   11156   12698   0.
CTRIA3   14681   2       12702   11192   11196   0.
CTRIA3   14682   2       11192   12702   11191   0.
CTRIA3   14683   2       12700   11191   12702   0.
CTRIA3   14684   2       11191   12700   12691   0.
CTRIA3   14685   2       11196   11185   12702   0.
CTRIA3   14686   2       12701   12702   11185   0.
CTRIA3   14687   2       12702   12701   12700   0.
CTRIA3   14688   2       11185   11163   12701   0.
CTRIA3   14689   2       11163   11185   12703   0.
CTRIA3   14690   2       11198   12703   11185   0.
CTRIA3   14691   2       12703   11198   11199   0.
CTRIA3   14692   2       11185   11196   11198   0.
CTRIA3   14693   2       11166   11165   12706   0.
CTRIA3   14694   2       12704   12706   11165   0.
CTRIA3   14695   2       12706   12704   12705   0.
CTRIA3   14696   2       11199   12705   12704   0.
CTRIA3   14697   2       12705   11199   11197   0.
CTRIA3   14698   2       11165   11164   12704   0.
CTRIA3   14699   2       12703   12704   11164   0.
CTRIA3   14700   2       12704   12703   11199   0.
CTRIA3   14701   2       11164   11163   12703   0.
CTRIA3   14702   2       11188   11177   11201   0.
CTRIA3   14703   2       12707   11201   11177   0.
CTRIA3   14704   2       11201   12707   11200   0.
CTRIA3   14705   2       12705   11200   12707   0.
CTRIA3   14706   2       11200   12705   11197   0.
CTRIA3   14707   2       11177   11176   12707   0.
CTRIA3   14708   2       12706   12707   11176   0.
CTRIA3   14709   2       12707   12706   12705   0.
CTRIA3   14710   2       11176   11166   12706   0.
CTRIA3   14711   2       12686   11202   11189   0.
CTRIA3   14712   2       11190   11202   12686   0.
CQUAD4   14713   2       11190   10946   12366   12708   0.
CQUAD4   14714   2       11114   11113   12709   12710   0.
CQUAD4   14715   2       11113   11187   12711   12709   0.
CQUAD4   14716   2       11187   11112   12712   12711   0.
CQUAD4   14717   2       11112   11150   12713   12712   0.
CQUAD4   14718   2       11150   11149   12714   12713   0.
CQUAD4   14719   2       11149   11148   12715   12714   0.
CQUAD4   14720   2       11148   11146   12716   12715   0.
CQUAD4   14721   2       11146   11147   12717   12716   0.
CQUAD4   14722   2       11147   11152   12718   12717   0.
CQUAD4   14723   2       11152   11179   12719   12718   0.
CQUAD4   14724   2       11179   11180   12720   12719   0.
CQUAD4   14725   2       11180   11178   12721   12720   0.
CQUAD4   14726   2       11178   11181   12722   12721   0.
CQUAD4   14727   2       11181   11182   12723   12722   0.
CQUAD4   14728   2       11182   11173   12724   12723   0.
CQUAD4   14729   2       11173   11172   12725   12724   0.
CQUAD4   14730   2       11172   11171   12726   12725   0.
CQUAD4   14731   2       11171   11188   12727   12726   0.
CQUAD4   14732   2       11188   11201   12728   12727   0.
CQUAD4   14733   2       11201   11200   12729   12728   0.
CQUAD4   14734   2       11200   11197   12730   12729   0.
CQUAD4   14735   2       11197   11199   12731   12730   0.
CQUAD4   14736   2       11199   11198   12732   12731   0.
CQUAD4   14737   2       11198   11196   12733   12732   0.
CQUAD4   14738   2       11196   11192   12734   12733   0.
CQUAD4   14739   2       11192   11191   12735   12734   0.
CQUAD4   14740   2       11191   11193   12736   12735   0.
CQUAD4   14741   2       11193   11194   12737   12736   0.
CQUAD4   14742   2       11194   11195   12738   12737   0.
CQUAD4   14743   2       11195   11189   12739   12738   0.
CQUAD4   14744   2       11189   11202   12740   12739   0.
CQUAD4   14745   2       11202   11190   12708   12740   0.
CTRIA3   14746   2       10029   10028   11211   0.
CTRIA3   14747   2       12743   11211   10028   0.
CTRIA3   14748   2       10028   10027   12743   0.
CTRIA3   14749   2       12741   12743   10027   0.
CTRIA3   14750   2       10027   10026   12741   0.
CTRIA3   14751   2       11211   12743   11210   0.
CTRIA3   14752   2       12742   11210   12743   0.
CTRIA3   14753   2       12743   12741   12742   0.
CTRIA3   14754   2       11210   12742   11209   0.
CTRIA3   14755   2       11206   12745   11207   0.
CTRIA3   14756   2       11212   11207   12745   0.
CTRIA3   14757   2       12745   12744   11212   0.
CTRIA3   14758   2       11209   12742   11214   0.
CTRIA3   14759   2       12746   11214   12742   0.
CTRIA3   14760   2       12742   12741   12746   0.
CTRIA3   14761   2       12744   12746   12741   0.
CTRIA3   14762   2       12741   10026   12744   0.
CTRIA3   14763   2       11214   12746   11213   0.
CTRIA3   14764   2       12745   11213   12746   0.
CTRIA3   14765   2       12746   12744   12745   0.
CTRIA3   14766   2       11213   12745   11206   0.
CTRIA3   14767   2       11217   12749   11216   0.
CTRIA3   14768   2       12747   11216   12749   0.
CTRIA3   14769   2       12749   12748   12747   0.
CTRIA3   14770   2       12401   12747   12748   0.
CTRIA3   14771   2       12748   12397   12401   0.
CTRIA3   14772   2       11216   12747   11215   0.
CTRIA3   14773   2       12402   11215   12747   0.
CTRIA3   14774   2       12747   12401   12402   0.
CTRIA3   14776   2       11224   12758   11223   0.
CTRIA3   14777   2       11203   12752   11219   0.
CTRIA3   14778   2       12750   11219   12752   0.
CTRIA3   14779   2       12752   12751   12750   0.
CTRIA3   14780   2       12748   12750   12751   0.
CTRIA3   14781   2       12751   12397   12748   0.
CTRIA3   14782   2       11219   12750   11218   0.
CTRIA3   14783   2       12749   11218   12750   0.
CTRIA3   14784   2       12750   12748   12749   0.
CTRIA3   14785   2       11218   12749   11217   0.
CTRIA3   14786   2       12752   11208   11220   0.
CTRIA3   14787   2       11220   12751   12752   0.
CTRIA3   14788   2       11208   12752   11203   0.
CTRIA3   14789   2       12756   11223   12758   0.
CTRIA3   14790   2       12758   12757   12756   0.
CTRIA3   14791   2       12754   12756   12757   0.
CTRIA3   14792   2       12757   12753   12754   0.
CTRIA3   14793   2       11223   12756   11222   0.
CTRIA3   14794   2       12755   11222   12756   0.
CTRIA3   14795   2       12756   12754   12755   0.
CTRIA3   14796   2       11222   12755   11221   0.
CTRIA3   14797   2       11209   12761   11226   0.
CTRIA3   14798   2       12759   11226   12761   0.
CTRIA3   14799   2       12761   12760   12759   0.
CTRIA3   14800   2       12757   12759   12760   0.
CTRIA3   14801   2       12760   12753   12757   0.
CTRIA3   14802   2       11226   12759   11225   0.
CTRIA3   14803   2       12758   11225   12759   0.
CTRIA3   14804   2       12759   12757   12758   0.
CTRIA3   14805   2       11225   12758   11224   0.
CTRIA3   14806   2       11206   12764   11213   0.
CTRIA3   14807   2       12762   11213   12764   0.
CTRIA3   14808   2       12764   12763   12762   0.
CTRIA3   14809   2       12760   12762   12763   0.
CTRIA3   14810   2       12763   12753   12760   0.
CTRIA3   14811   2       11213   12762   11214   0.
CTRIA3   14812   2       12761   11214   12762   0.
CTRIA3   14813   2       12762   12760   12761   0.
CTRIA3   14814   2       11214   12761   11209   0.
CTRIA3   14815   2       11203   12767   11204   0.
CTRIA3   14816   2       12765   11204   12767   0.
CTRIA3   14817   2       12767   12766   12765   0.
CTRIA3   14818   2       12763   12765   12766   0.
CTRIA3   14819   2       12766   12753   12763   0.
CTRIA3   14820   2       11204   12765   11205   0.
CTRIA3   14821   2       12764   11205   12765   0.
CTRIA3   14822   2       12765   12763   12764   0.
CTRIA3   14823   2       11205   12764   11206   0.
CTRIA3   14824   2       11217   12770   11218   0.
CTRIA3   14825   2       12768   11218   12770   0.
CTRIA3   14826   2       12770   12769   12768   0.
CTRIA3   14827   2       12766   12768   12769   0.
CTRIA3   14828   2       12769   12753   12766   0.
CTRIA3   14829   2       11218   12768   11219   0.
CTRIA3   14830   2       12767   11219   12768   0.
CTRIA3   14831   2       12768   12766   12767   0.
CTRIA3   14832   2       11219   12767   11203   0.
CTRIA3   14833   2       11221   12755   11228   0.
CTRIA3   14834   2       12771   11228   12755   0.
CTRIA3   14835   2       12755   12754   12771   0.
CTRIA3   14836   2       12769   12771   12754   0.
CTRIA3   14837   2       12754   12753   12769   0.
CTRIA3   14838   2       11228   12771   11227   0.
CTRIA3   14839   2       12770   11227   12771   0.
CTRIA3   14840   2       12771   12769   12770   0.
CTRIA3   14841   2       11227   12770   11217   0.
CTRIA3   14842   2       11232   12777   11231   0.
CTRIA3   14843   2       12775   11231   12777   0.
CTRIA3   14844   2       12777   12776   12775   0.
CTRIA3   14845   2       12773   12775   12776   0.
CTRIA3   14846   2       12776   12772   12773   0.
CTRIA3   14847   2       11231   12775   11230   0.
CTRIA3   14848   2       12774   11230   12775   0.
CTRIA3   14849   2       12775   12773   12774   0.
CTRIA3   14850   2       11230   12774   11229   0.
CTRIA3   14851   2       10143   12780   11234   0.
CTRIA3   14852   2       12778   11234   12780   0.
CTRIA3   14853   2       12780   12779   12778   0.
CTRIA3   14854   2       12776   12778   12779   0.
CTRIA3   14855   2       12779   12772   12776   0.
CTRIA3   14856   2       11234   12778   11233   0.
CTRIA3   14857   2       12777   11233   12778   0.
CTRIA3   14858   2       12778   12776   12777   0.
CTRIA3   14859   2       11233   12777   11232   0.
CTRIA3   14860   2       10029   12783   10138   0.
CTRIA3   14861   2       12781   10138   12783   0.
CTRIA3   14862   2       12783   12782   12781   0.
CTRIA3   14863   2       12779   12781   12782   0.
CTRIA3   14864   2       12782   12772   12779   0.
CTRIA3   14865   2       10138   12781   10140   0.
CTRIA3   14866   2       12780   10140   12781   0.
CTRIA3   14867   2       12781   12779   12780   0.
CTRIA3   14868   2       10140   12780   10143   0.
CTRIA3   14869   2       11209   12786   11210   0.
CTRIA3   14870   2       12784   11210   12786   0.
CTRIA3   14871   2       12786   12785   12784   0.
CTRIA3   14872   2       12782   12784   12785   0.
CTRIA3   14873   2       12785   12772   12782   0.
CTRIA3   14874   2       11210   12784   11211   0.
CTRIA3   14875   2       12783   11211   12784   0.
CTRIA3   14876   2       12784   12782   12783   0.
CTRIA3   14877   2       11211   12783   10029   0.
CTRIA3   14878   2       11224   12789   11225   0.
CTRIA3   14879   2       12787   11225   12789   0.
CTRIA3   14880   2       12789   12788   12787   0.
CTRIA3   14881   2       12785   12787   12788   0.
CTRIA3   14882   2       12788   12772   12785   0.
CTRIA3   14883   2       11225   12787   11226   0.
CTRIA3   14884   2       12786   11226   12787   0.
CTRIA3   14885   2       12787   12785   12786   0.
CTRIA3   14886   2       11226   12786   11209   0.
CTRIA3   14887   2       11229   12774   11236   0.
CTRIA3   14888   2       12790   11236   12774   0.
CTRIA3   14889   2       12774   12773   12790   0.
CTRIA3   14890   2       12788   12790   12773   0.
CTRIA3   14891   2       12773   12772   12788   0.
CTRIA3   14892   2       11236   12790   11235   0.
CTRIA3   14893   2       12789   11235   12790   0.
CTRIA3   14894   2       12790   12788   12789   0.
CTRIA3   14895   2       11235   12789   11224   0.
CTRIA3   14896   2       10245   10244   11239   0.
CTRIA3   14897   2       12793   11239   10244   0.
CTRIA3   14898   2       10244   10243   12793   0.
CTRIA3   14899   2       12791   12793   10243   0.
CTRIA3   14900   2       10243   10242   12791   0.
CTRIA3   14901   2       11239   12793   11238   0.
CTRIA3   14902   2       12792   11238   12793   0.
CTRIA3   14903   2       12793   12791   12792   0.
CTRIA3   14904   2       11238   12792   11237   0.
CTRIA3   14905   2       11232   12796   11233   0.
CTRIA3   14906   2       12794   11233   12796   0.
CTRIA3   14907   2       12796   12795   12794   0.
CTRIA3   14908   2       10258   12794   12795   0.
CTRIA3   14909   2       12795   10242   10258   0.
CTRIA3   14910   2       11233   12794   11234   0.
CTRIA3   14911   2       10259   11234   12794   0.
CTRIA3   14912   2       12794   10258   10259   0.
CTRIA3   14913   2       11234   10259   10143   0.
CTRIA3   14914   2       11237   12792   11241   0.
CTRIA3   14915   2       12797   11241   12792   0.
CTRIA3   14916   2       12792   12791   12797   0.
CTRIA3   14917   2       12795   12797   12791   0.
CTRIA3   14918   2       12791   10242   12795   0.
CTRIA3   14919   2       11241   12797   11240   0.
CTRIA3   14920   2       12796   11240   12797   0.
CTRIA3   14921   2       12797   12795   12796   0.
CTRIA3   14922   2       11240   12796   11232   0.
CTRIA3   14932   2       11255   12822   11254   0.
CTRIA3   14933   2       11221   12806   11247   0.
CTRIA3   14934   2       12804   11247   12806   0.
CTRIA3   14935   2       12806   12805   12804   0.
CTRIA3   14938   2       11247   12804   11246   0.
CTRIA3   14942   2       11217   12809   11227   0.
CTRIA3   14943   2       12807   11227   12809   0.
CTRIA3   14944   2       12809   12808   12807   0.
CTRIA3   14945   2       12805   12807   12808   0.
CTRIA3   14947   2       11227   12807   11228   0.
CTRIA3   14948   2       12806   11228   12807   0.
CTRIA3   14949   2       12807   12805   12806   0.
CTRIA3   14950   2       11228   12806   11221   0.
CTRIA3   14956   2       11215   12810   11216   0.
CTRIA3   14957   2       12809   11216   12810   0.
CTRIA3   14958   2       12810   12808   12809   0.
CTRIA3   14959   2       11216   12809   11217   0.
CTRIA3   14978   2       12820   11254   12822   0.
CTRIA3   14979   2       12822   12821   12820   0.
CTRIA3   14980   2       12818   12820   12821   0.
CTRIA3   14981   2       12821   12817   12818   0.
CTRIA3   14982   2       11254   12820   11253   0.
CTRIA3   14983   2       12819   11253   12820   0.
CTRIA3   14984   2       12820   12818   12819   0.
CTRIA3   14986   2       11229   12825   11257   0.
CTRIA3   14987   2       12823   11257   12825   0.
CTRIA3   14988   2       12825   12824   12823   0.
CTRIA3   14989   2       12821   12823   12824   0.
CTRIA3   14990   2       12824   12817   12821   0.
CTRIA3   14991   2       11257   12823   11256   0.
CTRIA3   14992   2       12822   11256   12823   0.
CTRIA3   14993   2       12823   12821   12822   0.
CTRIA3   14994   2       11256   12822   11255   0.
CTRIA3   14995   2       11224   12828   11235   0.
CTRIA3   14996   2       12826   11235   12828   0.
CTRIA3   14997   2       12828   12827   12826   0.
CTRIA3   14998   2       12824   12826   12827   0.
CTRIA3   14999   2       12827   12817   12824   0.
CTRIA3   15000   2       11235   12826   11236   0.
CTRIA3   15001   2       12825   11236   12826   0.
CTRIA3   15002   2       12826   12824   12825   0.
CTRIA3   15003   2       11236   12825   11229   0.
CTRIA3   15004   2       11221   12831   11222   0.
CTRIA3   15005   2       12829   11222   12831   0.
CTRIA3   15006   2       12831   12830   12829   0.
CTRIA3   15007   2       12827   12829   12830   0.
CTRIA3   15008   2       12830   12817   12827   0.
CTRIA3   15009   2       11222   12829   11223   0.
CTRIA3   15010   2       12828   11223   12829   0.
CTRIA3   15011   2       12829   12827   12828   0.
CTRIA3   15012   2       11223   12828   11224   0.
CTRIA3   15014   2       12832   11246   12834   0.
CTRIA3   15015   2       12834   12833   12832   0.
CTRIA3   15016   2       12830   12832   12833   0.
CTRIA3   15017   2       12833   12817   12830   0.
CTRIA3   15018   2       11246   12832   11247   0.
CTRIA3   15019   2       12831   11247   12832   0.
CTRIA3   15020   2       12832   12830   12831   0.
CTRIA3   15021   2       11247   12831   11221   0.
CTRIA3   15024   2       12819   12818   12835   0.
CTRIA3   15025   2       12833   12835   12818   0.
CTRIA3   15026   2       12818   12817   12833   0.
CTRIA3   15029   2       12835   12833   12834   0.
CTRIA3   15031   2       11263   12841   11262   0.
CTRIA3   15032   2       12839   11262   12841   0.
CTRIA3   15033   2       12841   12840   12839   0.
CTRIA3   15034   2       12837   12839   12840   0.
CTRIA3   15035   2       12840   12836   12837   0.
CTRIA3   15036   2       11262   12839   11261   0.
CTRIA3   15037   2       12838   11261   12839   0.
CTRIA3   15038   2       12839   12837   12838   0.
CTRIA3   15039   2       11261   12838   11260   0.
CTRIA3   15040   2       11237   12844   11265   0.
CTRIA3   15041   2       12842   11265   12844   0.
CTRIA3   15042   2       12844   12843   12842   0.
CTRIA3   15043   2       12840   12842   12843   0.
CTRIA3   15044   2       12843   12836   12840   0.
CTRIA3   15045   2       11265   12842   11264   0.
CTRIA3   15046   2       12841   11264   12842   0.
CTRIA3   15047   2       12842   12840   12841   0.
CTRIA3   15048   2       11264   12841   11263   0.
CTRIA3   15049   2       11232   12847   11240   0.
CTRIA3   15050   2       12845   11240   12847   0.
CTRIA3   15051   2       12847   12846   12845   0.
CTRIA3   15052   2       12843   12845   12846   0.
CTRIA3   15053   2       12846   12836   12843   0.
CTRIA3   15054   2       11240   12845   11241   0.
CTRIA3   15055   2       12844   11241   12845   0.
CTRIA3   15056   2       12845   12843   12844   0.
CTRIA3   15057   2       11241   12844   11237   0.
CTRIA3   15058   2       11229   12850   11230   0.
CTRIA3   15059   2       12848   11230   12850   0.
CTRIA3   15060   2       12850   12849   12848   0.
CTRIA3   15061   2       12846   12848   12849   0.
CTRIA3   15062   2       12849   12836   12846   0.
CTRIA3   15063   2       11230   12848   11231   0.
CTRIA3   15064   2       12847   11231   12848   0.
CTRIA3   15065   2       12848   12846   12847   0.
CTRIA3   15066   2       11231   12847   11232   0.
CTRIA3   15067   2       11255   12853   11256   0.
CTRIA3   15068   2       12851   11256   12853   0.
CTRIA3   15069   2       12853   12852   12851   0.
CTRIA3   15070   2       12849   12851   12852   0.
CTRIA3   15071   2       12852   12836   12849   0.
CTRIA3   15072   2       11256   12851   11257   0.
CTRIA3   15073   2       12850   11257   12851   0.
CTRIA3   15074   2       12851   12849   12850   0.
CTRIA3   15075   2       11257   12850   11229   0.
CTRIA3   15076   2       11260   12838   11267   0.
CTRIA3   15077   2       12854   11267   12838   0.
CTRIA3   15078   2       12838   12837   12854   0.
CTRIA3   15079   2       12852   12854   12837   0.
CTRIA3   15080   2       12837   12836   12852   0.
CTRIA3   15081   2       11267   12854   11266   0.
CTRIA3   15082   2       12853   11266   12854   0.
CTRIA3   15083   2       12854   12852   12853   0.
CTRIA3   15084   2       11266   12853   11255   0.
CTRIA3   15085   2       11271   12860   11270   0.
CTRIA3   15086   2       12858   11270   12860   0.
CTRIA3   15087   2       12860   12859   12858   0.
CTRIA3   15088   2       12856   12858   12859   0.
CTRIA3   15089   2       12859   12855   12856   0.
CTRIA3   15090   2       11270   12858   11269   0.
CTRIA3   15091   2       12857   11269   12858   0.
CTRIA3   15092   2       12858   12856   12857   0.
CTRIA3   15093   2       11269   12857   11268   0.
CTRIA3   15094   2       10386   12863   11273   0.
CTRIA3   15095   2       12861   11273   12863   0.
CTRIA3   15096   2       12863   12862   12861   0.
CTRIA3   15097   2       12859   12861   12862   0.
CTRIA3   15098   2       12862   12855   12859   0.
CTRIA3   15099   2       11273   12861   11272   0.
CTRIA3   15100   2       12860   11272   12861   0.
CTRIA3   15101   2       12861   12859   12860   0.
CTRIA3   15102   2       11272   12860   11271   0.
CTRIA3   15103   2       10245   12866   10381   0.
CTRIA3   15104   2       12864   10381   12866   0.
CTRIA3   15105   2       12866   12865   12864   0.
CTRIA3   15106   2       12862   12864   12865   0.
CTRIA3   15107   2       12865   12855   12862   0.
CTRIA3   15108   2       10381   12864   10383   0.
CTRIA3   15109   2       12863   10383   12864   0.
CTRIA3   15110   2       12864   12862   12863   0.
CTRIA3   15111   2       10383   12863   10386   0.
CTRIA3   15112   2       11237   12869   11238   0.
CTRIA3   15113   2       12867   11238   12869   0.
CTRIA3   15114   2       12869   12868   12867   0.
CTRIA3   15115   2       12865   12867   12868   0.
CTRIA3   15116   2       12868   12855   12865   0.
CTRIA3   15117   2       11238   12867   11239   0.
CTRIA3   15118   2       12866   11239   12867   0.
CTRIA3   15119   2       12867   12865   12866   0.
CTRIA3   15120   2       11239   12866   10245   0.
CTRIA3   15121   2       11263   12872   11264   0.
CTRIA3   15122   2       12870   11264   12872   0.
CTRIA3   15123   2       12872   12871   12870   0.
CTRIA3   15124   2       12868   12870   12871   0.
CTRIA3   15125   2       12871   12855   12868   0.
CTRIA3   15126   2       11264   12870   11265   0.
CTRIA3   15127   2       12869   11265   12870   0.
CTRIA3   15128   2       12870   12868   12869   0.
CTRIA3   15129   2       11265   12869   11237   0.
CTRIA3   15130   2       11268   12857   11275   0.
CTRIA3   15131   2       12873   11275   12857   0.
CTRIA3   15132   2       12857   12856   12873   0.
CTRIA3   15133   2       12871   12873   12856   0.
CTRIA3   15134   2       12856   12855   12871   0.
CTRIA3   15135   2       11275   12873   11274   0.
CTRIA3   15136   2       12872   11274   12873   0.
CTRIA3   15137   2       12873   12871   12872   0.
CTRIA3   15138   2       11274   12872   11263   0.
CTRIA3   15139   2       12874   11277   10465   0.
CTRIA3   15140   2       10465   10460   12874   0.
CTRIA3   15141   2       11277   12874   12875   0.
CTRIA3   15142   2       11271   12878   11272   0.
CTRIA3   15143   2       12876   11272   12878   0.
CTRIA3   15144   2       12878   12877   12876   0.
CTRIA3   15145   2       10466   12876   12877   0.
CTRIA3   15146   2       12877   10460   10466   0.
CTRIA3   15147   2       11272   12876   11273   0.
CTRIA3   15148   2       10467   11273   12876   0.
CTRIA3   15149   2       12876   10466   10467   0.
CTRIA3   15150   2       11273   10467   10386   0.
CTRIA3   15151   2       11276   12875   11279   0.
CTRIA3   15152   2       12879   11279   12875   0.
CTRIA3   15153   2       12875   12874   12879   0.
CTRIA3   15154   2       12877   12879   12874   0.
CTRIA3   15155   2       12874   10460   12877   0.
CTRIA3   15156   2       11279   12879   11278   0.
CTRIA3   15157   2       12878   11278   12879   0.
CTRIA3   15158   2       12879   12877   12878   0.
CTRIA3   15159   2       11278   12878   11271   0.
CTRIA3   15241   2       11296   12911   11295   0.
CTRIA3   15242   2       12909   11295   12911   0.
CTRIA3   15243   2       12911   12910   12909   0.
CTRIA3   15244   2       12907   12909   12910   0.
CTRIA3   15246   2       11295   12909   11294   0.
CTRIA3   15247   2       12908   11294   12909   0.
CTRIA3   15248   2       12909   12907   12908   0.
CTRIA3   15249   2       11294   12908   11293   0.
CTRIA3   15250   2       11260   12914   11298   0.
CTRIA3   15251   2       12912   11298   12914   0.
CTRIA3   15252   2       12914   12913   12912   0.
CTRIA3   15253   2       12910   12912   12913   0.
CTRIA3   15255   2       11298   12912   11297   0.
CTRIA3   15256   2       12911   11297   12912   0.
CTRIA3   15257   2       12912   12910   12911   0.
CTRIA3   15258   2       11297   12911   11296   0.
CTRIA3   15259   2       11255   12917   11266   0.
CTRIA3   15260   2       12915   11266   12917   0.
CTRIA3   15261   2       12917   12916   12915   0.
CTRIA3   15262   2       12913   12915   12916   0.
CTRIA3   15264   2       11266   12915   11267   0.
CTRIA3   15265   2       12914   11267   12915   0.
CTRIA3   15266   2       12915   12913   12914   0.
CTRIA3   15267   2       11267   12914   11260   0.
CTRIA3   15273   2       11253   12918   11254   0.
CTRIA3   15274   2       12917   11254   12918   0.
CTRIA3   15275   2       12918   12916   12917   0.
CTRIA3   15276   2       11254   12917   11255   0.
CTRIA3   15286   2       11293   12908   11300   0.
CTRIA3   15295   2       11304   12930   11303   0.
CTRIA3   15296   2       12928   11303   12930   0.
CTRIA3   15297   2       12930   12929   12928   0.
CTRIA3   15298   2       12926   12928   12929   0.
CTRIA3   15299   2       12929   12925   12926   0.
CTRIA3   15300   2       11303   12928   11302   0.
CTRIA3   15301   2       12927   11302   12928   0.
CTRIA3   15302   2       12928   12926   12927   0.
CTRIA3   15303   2       11302   12927   11301   0.
CTRIA3   15304   2       11268   12933   11306   0.
CTRIA3   15305   2       12931   11306   12933   0.
CTRIA3   15306   2       12933   12932   12931   0.
CTRIA3   15307   2       12929   12931   12932   0.
CTRIA3   15308   2       12932   12925   12929   0.
CTRIA3   15309   2       11306   12931   11305   0.
CTRIA3   15310   2       12930   11305   12931   0.
CTRIA3   15311   2       12931   12929   12930   0.
CTRIA3   15312   2       11305   12930   11304   0.
CTRIA3   15313   2       11263   12936   11274   0.
CTRIA3   15314   2       12934   11274   12936   0.
CTRIA3   15315   2       12936   12935   12934   0.
CTRIA3   15316   2       12932   12934   12935   0.
CTRIA3   15317   2       12935   12925   12932   0.
CTRIA3   15318   2       11274   12934   11275   0.
CTRIA3   15319   2       12933   11275   12934   0.
CTRIA3   15320   2       12934   12932   12933   0.
CTRIA3   15321   2       11275   12933   11268   0.
CTRIA3   15322   2       11260   12939   11261   0.
CTRIA3   15323   2       12937   11261   12939   0.
CTRIA3   15324   2       12939   12938   12937   0.
CTRIA3   15325   2       12935   12937   12938   0.
CTRIA3   15326   2       12938   12925   12935   0.
CTRIA3   15327   2       11261   12937   11262   0.
CTRIA3   15328   2       12936   11262   12937   0.
CTRIA3   15329   2       12937   12935   12936   0.
CTRIA3   15330   2       11262   12936   11263   0.
CTRIA3   15331   2       11296   12942   11297   0.
CTRIA3   15332   2       12940   11297   12942   0.
CTRIA3   15333   2       12942   12941   12940   0.
CTRIA3   15334   2       12938   12940   12941   0.
CTRIA3   15335   2       12941   12925   12938   0.
CTRIA3   15336   2       11297   12940   11298   0.
CTRIA3   15337   2       12939   11298   12940   0.
CTRIA3   15338   2       12940   12938   12939   0.
CTRIA3   15339   2       11298   12939   11260   0.
CTRIA3   15340   2       11301   12927   11308   0.
CTRIA3   15341   2       12943   11308   12927   0.
CTRIA3   15342   2       12927   12926   12943   0.
CTRIA3   15343   2       12941   12943   12926   0.
CTRIA3   15344   2       12926   12925   12941   0.
CTRIA3   15345   2       11308   12943   11307   0.
CTRIA3   15346   2       12942   11307   12943   0.
CTRIA3   15347   2       12943   12941   12942   0.
CTRIA3   15348   2       11307   12942   11296   0.
CTRIA3   15349   2       11311   12944   11309   0.
CTRIA3   15350   2       11313   12945   11312   0.
CTRIA3   15351   2       11311   11312   12945   0.
CTRIA3   15352   2       12945   12944   11311   0.
CTRIA3   15353   2       11271   12948   11278   0.
CTRIA3   15354   2       12946   11278   12948   0.
CTRIA3   15355   2       12948   12947   12946   0.
CTRIA3   15356   2       12945   12946   12947   0.
CTRIA3   15357   2       12947   12944   12945   0.
CTRIA3   15358   2       11278   12946   11279   0.
CTRIA3   15359   2       11313   11279   12946   0.
CTRIA3   15360   2       12946   12945   11313   0.
CTRIA3   15361   2       11279   11313   11276   0.
CTRIA3   15362   2       11268   12951   11269   0.
CTRIA3   15363   2       12949   11269   12951   0.
CTRIA3   15364   2       12951   12950   12949   0.
CTRIA3   15365   2       12947   12949   12950   0.
CTRIA3   15366   2       12950   12944   12947   0.
CTRIA3   15367   2       11269   12949   11270   0.
CTRIA3   15368   2       12948   11270   12949   0.
CTRIA3   15369   2       12949   12947   12948   0.
CTRIA3   15370   2       11270   12948   11271   0.
CTRIA3   15371   2       11304   12954   11305   0.
CTRIA3   15372   2       12952   11305   12954   0.
CTRIA3   15373   2       12954   12953   12952   0.
CTRIA3   15374   2       12950   12952   12953   0.
CTRIA3   15375   2       12953   12944   12950   0.
CTRIA3   15376   2       11305   12952   11306   0.
CTRIA3   15377   2       12951   11306   12952   0.
CTRIA3   15378   2       12952   12950   12951   0.
CTRIA3   15379   2       11306   12951   11268   0.
CTRIA3   15380   2       12955   11315   11310   0.
CTRIA3   15381   2       11310   11309   12955   0.
CTRIA3   15382   2       12953   12955   11309   0.
CTRIA3   15383   2       11309   12944   12953   0.
CTRIA3   15384   2       11315   12955   11314   0.
CTRIA3   15385   2       12954   11314   12955   0.
CTRIA3   15386   2       12955   12953   12954   0.
CTRIA3   15387   2       11314   12954   11304   0.
CTRIA3   15397   2       11329   12980   11328   0.
CTRIA3   15443   2       12978   11328   12980   0.
CTRIA3   15444   2       12980   12979   12978   0.
CTRIA3   15445   2       12976   12978   12979   0.
CTRIA3   15447   2       11328   12978   11327   0.
CTRIA3   15448   2       12977   11327   12978   0.
CTRIA3   15449   2       12978   12976   12977   0.
CTRIA3   15450   2       11327   12977   11326   0.
CTRIA3   15451   2       11293   12983   11331   0.
CTRIA3   15452   2       12981   11331   12983   0.
CTRIA3   15453   2       12983   12982   12981   0.
CTRIA3   15454   2       12979   12981   12982   0.
CTRIA3   15456   2       11331   12981   11330   0.
CTRIA3   15457   2       12980   11330   12981   0.
CTRIA3   15458   2       12981   12979   12980   0.
CTRIA3   15459   2       11330   12980   11329   0.
CTRIA3   15468   2       11300   12983   11293   0.
CTRIA3   15487   2       11326   12977   11333   0.
CTRIA3   15496   2       11336   12999   11335   0.
CTRIA3   15497   2       12997   11335   12999   0.
CTRIA3   15498   2       12999   12998   12997   0.
CTRIA3   15499   2       12995   12997   12998   0.
CTRIA3   15500   2       12998   12994   12995   0.
CTRIA3   15501   2       11335   12997   11334   0.
CTRIA3   15502   2       12997   12995   12996   0.
CTRIA3   15503   2       11301   13002   11338   0.
CTRIA3   15504   2       13000   11338   13002   0.
CTRIA3   15505   2       13002   13001   13000   0.
CTRIA3   15506   2       12998   13000   13001   0.
CTRIA3   15507   2       13001   12994   12998   0.
CTRIA3   15508   2       11338   13000   11337   0.
CTRIA3   15509   2       12999   11337   13000   0.
CTRIA3   15510   2       13000   12998   12999   0.
CTRIA3   15511   2       11337   12999   11336   0.
CTRIA3   15512   2       11296   13005   11307   0.
CTRIA3   15513   2       13003   11307   13005   0.
CTRIA3   15514   2       13005   13004   13003   0.
CTRIA3   15515   2       13001   13003   13004   0.
CTRIA3   15516   2       13004   12994   13001   0.
CTRIA3   15517   2       11307   13003   11308   0.
CTRIA3   15518   2       13002   11308   13003   0.
CTRIA3   15519   2       13003   13001   13002   0.
CTRIA3   15520   2       11308   13002   11301   0.
CTRIA3   15521   2       11293   13008   11294   0.
CTRIA3   15522   2       13006   11294   13008   0.
CTRIA3   15523   2       13008   13007   13006   0.
CTRIA3   15524   2       13004   13006   13007   0.
CTRIA3   15525   2       13007   12994   13004   0.
CTRIA3   15526   2       11294   13006   11295   0.
CTRIA3   15527   2       13005   11295   13006   0.
CTRIA3   15528   2       13006   13004   13005   0.
CTRIA3   15529   2       11295   13005   11296   0.
CTRIA3   15530   2       11329   13011   11330   0.
CTRIA3   15531   2       13009   11330   13011   0.
CTRIA3   15532   2       13011   13010   13009   0.
CTRIA3   15533   2       13007   13009   13010   0.
CTRIA3   15534   2       13010   12994   13007   0.
CTRIA3   15535   2       11330   13009   11331   0.
CTRIA3   15536   2       13008   11331   13009   0.
CTRIA3   15537   2       13009   13007   13008   0.
CTRIA3   15538   2       11331   13008   11293   0.
CTRIA3   15539   2       13012   11340   12996   0.
CTRIA3   15540   2       12996   12995   13012   0.
CTRIA3   15541   2       13010   13012   12995   0.
CTRIA3   15542   2       12995   12994   13010   0.
CTRIA3   15543   2       11340   13012   11339   0.
CTRIA3   15544   2       13011   11339   13012   0.
CTRIA3   15545   2       13012   13010   13011   0.
CTRIA3   15546   2       11339   13011   11329   0.
CTRIA3   15547   2       11304   13013   11314   0.
CTRIA3   15548   2       11342   11314   13013   0.
CTRIA3   15549   2       13013   11343   11342   0.
CTRIA3   15550   2       11314   11342   11315   0.
CTRIA3   15551   2       11301   13016   11302   0.
CTRIA3   15552   2       13014   11302   13016   0.
CTRIA3   15553   2       13016   13015   13014   0.
CTRIA3   15554   2       11343   13014   13015   0.
CTRIA3   15555   2       13015   11341   11343   0.
CTRIA3   15556   2       11302   13014   11303   0.
CTRIA3   15557   2       13013   11303   13014   0.
CTRIA3   15558   2       13014   11343   13013   0.
CTRIA3   15559   2       11303   13013   11304   0.
CTRIA3   15560   2       11336   11345   11337   0.
CTRIA3   15561   2       13017   11337   11345   0.
CTRIA3   15562   2       11345   11344   13017   0.
CTRIA3   15563   2       13015   13017   11344   0.
CTRIA3   15564   2       11344   11341   13015   0.
CTRIA3   15565   2       11337   13017   11338   0.
CTRIA3   15566   2       13016   11338   13017   0.
CTRIA3   15567   2       13017   13015   13016   0.
CTRIA3   15568   2       11338   13016   11301   0.
CTRIA3   15569   2       10457   12744   10026   0.
CTRIA3   15570   2       10457   11212   12744   0.
CTRIA3   15571   2       11186   12751   11220   0.
CTRIA3   15572   2       11186   12397   12751   0.
CTRIA3   15573   2       12875   11276   11349   0.
CTRIA3   15574   2       11277   12875   11349   0.
CTRIA3   15575   2       12997   12996   11334   0.
CTRIA3   15576   2       11350   11334   12996   0.
CTRIA3   15577   2       11340   11350   12996   0.
CTRIA3   15578   2       13018   11114   11352   0.
CTRIA3   15579   2       11114   13018   12538   0.
CTRIA3   15580   2       11352   13019   13018   0.
CTRIA3   15590   2       11351   11346   13019   0.
CTRIA3   15600   2       11357   11356   13025   0.
CTRIA3   15601   2       11355   13025   11356   0.
CTRIA3   15608   2       11347   11346   13026   0.
CTRIA3   15609   2       11357   13026   11346   0.
CTRIA3   15610   2       13026   11357   13025   0.
CTRIA3   15611   2       11346   11351   11357   0.
CTRIA3   15621   2       11326   11333   13034   0.
CTRIA3   15630   2       13035   11354   11358   0.
CTRIA3   15631   2       11354   13035   11353   0.
CTRIA3   15632   2       13033   11353   13035   0.
CTRIA3   15634   2       11358   11348   13035   0.
CTRIA3   15635   2       13034   13035   11348   0.
CTRIA3   15636   2       13035   13034   13033   0.
CTRIA3   15637   2       11348   11326   13034   0.
CTRIA3   15638   2       11326   11348   13036   0.
CTRIA3   15639   2       11360   13036   11348   0.
CTRIA3   15640   2       13036   11360   11361   0.
CTRIA3   15641   2       11348   11358   11360   0.
CTRIA3   15642   2       11329   11328   13039   0.
CTRIA3   15643   2       13037   13039   11328   0.
CTRIA3   15644   2       13039   13037   13038   0.
CTRIA3   15645   2       11361   13038   13037   0.
CTRIA3   15646   2       13038   11361   11359   0.
CTRIA3   15647   2       11328   11327   13037   0.
CTRIA3   15648   2       13036   13037   11327   0.
CTRIA3   15649   2       13037   13036   11361   0.
CTRIA3   15650   2       11327   11326   13036   0.
CTRIA3   15651   2       11350   11340   11363   0.
CTRIA3   15652   2       13040   11363   11340   0.
CTRIA3   15653   2       11363   13040   11362   0.
CTRIA3   15654   2       13038   11362   13040   0.
CTRIA3   15655   2       11362   13038   11359   0.
CTRIA3   15656   2       11340   11339   13040   0.
CTRIA3   15657   2       13039   13040   11339   0.
CTRIA3   15658   2       13040   13039   13038   0.
CTRIA3   15659   2       11339   11329   13039   0.
CTRIA3   15660   2       13019   11364   11351   0.
CTRIA3   15661   2       11352   11364   13019   0.
CQUAD4   15662   2       11352   11114   12710   13041   0.
CQUAD4   15663   2       10465   11277   13042   10501   0.
CQUAD4   15664   2       11277   11349   13043   13042   0.
CQUAD4   15665   2       11349   11276   13044   13043   0.
CQUAD4   15666   2       11276   11313   13045   13044   0.
CQUAD4   15667   2       11313   11312   13046   13045   0.
CQUAD4   15668   2       11312   11311   13047   13046   0.
CQUAD4   15669   2       11311   11309   13048   13047   0.
CQUAD4   15670   2       11309   11310   13049   13048   0.
CQUAD4   15671   2       11310   11315   13050   13049   0.
CQUAD4   15672   2       11315   11342   13051   13050   0.
CQUAD4   15673   2       11342   11343   13052   13051   0.
CQUAD4   15674   2       11343   11341   13053   13052   0.
CQUAD4   15675   2       11341   11344   13054   13053   0.
CQUAD4   15676   2       11344   11345   13055   13054   0.
CQUAD4   15677   2       11345   11336   13056   13055   0.
CQUAD4   15678   2       11336   11335   13057   13056   0.
CQUAD4   15679   2       11335   11334   13058   13057   0.
CQUAD4   15680   2       11334   11350   13059   13058   0.
CQUAD4   15681   2       11350   11363   13060   13059   0.
CQUAD4   15682   2       11363   11362   13061   13060   0.
CQUAD4   15683   2       11362   11359   13062   13061   0.
CQUAD4   15684   2       11359   11361   13063   13062   0.
CQUAD4   15685   2       11361   11360   13064   13063   0.
CQUAD4   15686   2       11360   11358   13065   13064   0.
CQUAD4   15687   2       11358   11354   13066   13065   0.
CQUAD4   15688   2       11354   11353   13067   13066   0.
CQUAD4   15689   2       11353   11355   13068   13067   0.
CQUAD4   15690   2       11355   11356   13069   13068   0.
CQUAD4   15691   2       11356   11357   13070   13069   0.
CQUAD4   15692   2       11357   11351   13071   13070   0.
CQUAD4   15693   2       11351   11364   13072   13071   0.
CQUAD4   15694   2       11364   11352   13041   13072   0.
CTRIA3   26912   2       10181   24913   10175   0.
CTRIA3   26923   2       10182   10184   24919   0.
CTRIA3   26924   2       24919   10181   10182   0.
CTRIA3   26956   2       10175   24913   10196   0.
CTRIA3   26964   2       10208   24932   10202   0.
CTRIA3   26975   2       10209   10211   24938   0.
CTRIA3   26987   2       24947   10184   10224   0.
CTRIA3   26988   2       10224   10223   24947   0.
CTRIA3   26999   2       10202   24932   10223   0.
CTRIA3   27005   2       10233   24951   10229   0.
CTRIA3   27008   2       24956   10211   10238   0.
CTRIA3   27009   2       10238   10237   24956   0.
CTRIA3   27020   2       10229   24951   10237   0.
CTRIA3   39061   2       10556   11382   32399   0.
CTRIA3   39074   2       32399   11382   32416   0.
CTRIA3   39075   2       11398   32416   11382   0.
CTRIA3   39079   2       32416   11398   10561   0.
CTRIA3   39091   2       32432   32431   32429   0.
CTRIA3   39092   2       32428   32429   32431   0.
CTRIA3   39093   2       32431   32430   32428   0.
CTRIA3   39094   2       32424   32428   32430   0.
CTRIA3   39095   2       32430   32423   32424   0.
CTRIA3   39096   2       32429   32428   32427   0.
CTRIA3   39097   2       32425   32427   32428   0.
CTRIA3   39098   2       32428   32424   32425   0.
CTRIA3   39099   2       32427   32425   32426   0.
CTRIA3   39100   2       32399   32437   32435   0.
CTRIA3   39101   2       32434   32435   32437   0.
CTRIA3   39102   2       32437   32436   32434   0.
CTRIA3   39103   2       32430   32434   32436   0.
CTRIA3   39104   2       32436   32423   32430   0.
CTRIA3   39105   2       32435   32434   32433   0.
CTRIA3   39106   2       32431   32433   32434   0.
CTRIA3   39107   2       32434   32430   32431   0.
CTRIA3   39108   2       32433   32431   32432   0.
CTRIA3   39110   2       32438   10561   11441   0.
CTRIA3   39111   2       11441   32439   32438   0.
CTRIA3   39112   2       32436   32438   32439   0.
CTRIA3   39113   2       32439   32423   32436   0.
CTRIA3   39114   2       10561   32438   32416   0.
CTRIA3   39115   2       32437   32416   32438   0.
CTRIA3   39116   2       32438   32436   32437   0.
CTRIA3   39117   2       32416   32437   32399   0.
CTRIA3   39120   2       11444   32442   11442   0.
CTRIA3   39121   2       32439   11442   32442   0.
CTRIA3   39122   2       32442   32423   32439   0.
CTRIA3   39125   2       11442   32439   11441   0.
CTRIA3   39127   2       32449   32448   32446   0.
CTRIA3   39128   2       32445   32446   32448   0.
CTRIA3   39129   2       32448   32447   32445   0.
CTRIA3   39130   2       32442   32445   32447   0.
CTRIA3   39131   2       32447   32423   32442   0.
CTRIA3   39132   2       32446   32445   10024   0.
CTRIA3   39133   2       11444   10024   32445   0.
CTRIA3   39134   2       32445   32442   11444   0.
CTRIA3   39136   2       32426   32425   32452   0.
CTRIA3   39137   2       32451   32452   32425   0.
CTRIA3   39138   2       32425   32424   32451   0.
CTRIA3   39139   2       32447   32451   32424   0.
CTRIA3   39140   2       32424   32423   32447   0.
CTRIA3   39141   2       32452   32451   32450   0.
CTRIA3   39142   2       32448   32450   32451   0.
CTRIA3   39143   2       32451   32447   32448   0.
CTRIA3   39144   2       32450   32448   32449   0.
CTRIA3   39152   2       10587   11451   32456   0.
CTRIA3   39165   2       32399   11463   10556   0.
CTRIA3   39174   2       32432   32473   32433   0.
CTRIA3   39175   2       32471   32433   32473   0.
CTRIA3   39176   2       32473   11465   32471   0.
CTRIA3   39177   2       11462   32471   11465   0.
CTRIA3   39179   2       32433   32471   32435   0.
CTRIA3   39180   2       11463   32435   32471   0.
CTRIA3   39181   2       32471   11462   11463   0.
CTRIA3   39182   2       32435   11463   32399   0.
CTRIA3   39183   2       32456   11451   32476   0.
CTRIA3   39184   2       32475   32476   11451   0.
CTRIA3   39185   2       11451   11450   32475   0.
CTRIA3   39186   2       11465   32475   11450   0.
CTRIA3   39188   2       32476   32475   32474   0.
CTRIA3   39189   2       32473   32474   32475   0.
CTRIA3   39190   2       32475   11465   32473   0.
CTRIA3   39191   2       32474   32473   32432   0.
CTRIA3   39192   2       32486   32485   32483   0.
CTRIA3   39193   2       32482   32483   32485   0.
CTRIA3   39194   2       32485   32484   32482   0.
CTRIA3   39195   2       32478   32482   32484   0.
CTRIA3   39196   2       32484   32477   32478   0.
CTRIA3   39197   2       32483   32482   32481   0.
CTRIA3   39198   2       32479   32481   32482   0.
CTRIA3   39199   2       32482   32478   32479   0.
CTRIA3   39200   2       32481   32479   32480   0.
CTRIA3   39201   2       32504   32503   32501   0.
CTRIA3   39202   2       32426   32491   32489   0.
CTRIA3   39203   2       32488   32489   32491   0.
CTRIA3   39204   2       32491   32490   32488   0.
CTRIA3   39205   2       32484   32488   32490   0.
CTRIA3   39206   2       32490   32477   32484   0.
CTRIA3   39208   2       32485   32487   32488   0.
CTRIA3   39209   2       32488   32484   32485   0.
CTRIA3   39210   2       32487   32485   32486   0.
CTRIA3   39211   2       32449   32494   32450   0.
CTRIA3   39212   2       32492   32450   32494   0.
CTRIA3   39213   2       32494   32493   32492   0.
CTRIA3   39214   2       32490   32492   32493   0.
CTRIA3   39215   2       32493   32477   32490   0.
CTRIA3   39216   2       32450   32492   32452   0.
CTRIA3   39217   2       32491   32452   32492   0.
CTRIA3   39218   2       32492   32490   32491   0.
CTRIA3   39219   2       32452   32491   32426   0.
CTRIA3   39220   2       32500   32501   32503   0.
CTRIA3   39221   2       32503   32502   32500   0.
CTRIA3   39222   2       32496   32500   32502   0.
CTRIA3   39223   2       32502   32495   32496   0.
CTRIA3   39224   2       32501   32500   32499   0.
CTRIA3   39225   2       32497   32499   32500   0.
CTRIA3   39226   2       32500   32496   32497   0.
CTRIA3   39227   2       32499   32497   32498   0.
CTRIA3   39228   2       32456   32509   32507   0.
CTRIA3   39229   2       32506   32507   32509   0.
CTRIA3   39230   2       32509   32508   32506   0.
CTRIA3   39231   2       32502   32506   32508   0.
CTRIA3   39232   2       32508   32495   32502   0.
CTRIA3   39233   2       32507   32506   32505   0.
CTRIA3   39234   2       32503   32505   32506   0.
CTRIA3   39235   2       32506   32502   32503   0.
CTRIA3   39236   2       32505   32503   32504   0.
CTRIA3   39237   2       32432   32512   32474   0.
CTRIA3   39238   2       32510   32474   32512   0.
CTRIA3   39239   2       32512   32511   32510   0.
CTRIA3   39240   2       32508   32510   32511   0.
CTRIA3   39241   2       32511   32495   32508   0.
CTRIA3   39242   2       32474   32510   32476   0.
CTRIA3   39243   2       32509   32476   32510   0.
CTRIA3   39244   2       32510   32508   32509   0.
CTRIA3   39245   2       32476   32509   32456   0.
CTRIA3   39246   2       32426   32515   32427   0.
CTRIA3   39247   2       32513   32427   32515   0.
CTRIA3   39248   2       32515   32514   32513   0.
CTRIA3   39249   2       32511   32513   32514   0.
CTRIA3   39250   2       32514   32495   32511   0.
CTRIA3   39251   2       32427   32513   32429   0.
CTRIA3   39252   2       32512   32429   32513   0.
CTRIA3   39253   2       32513   32511   32512   0.
CTRIA3   39254   2       32429   32512   32432   0.
CTRIA3   39255   2       32486   32518   32487   0.
CTRIA3   39257   2       32518   32517   32516   0.
CTRIA3   39258   2       32514   32516   32517   0.
CTRIA3   39259   2       32517   32495   32514   0.
CTRIA3   39261   2       32515   32489   32516   0.
CTRIA3   39262   2       32516   32514   32515   0.
CTRIA3   39263   2       32489   32515   32426   0.
CTRIA3   39264   2       32498   32497   32521   0.
CTRIA3   39265   2       32520   32521   32497   0.
CTRIA3   39266   2       32497   32496   32520   0.
CTRIA3   39267   2       32517   32520   32496   0.
CTRIA3   39268   2       32496   32495   32517   0.
CTRIA3   39271   2       32520   32517   32518   0.
CTRIA3   39272   2       32519   32518   32486   0.
CTRIA3   39273   2       32456   11555   10587   0.
CTRIA3   39277   2       32504   32527   32505   0.
CTRIA3   39278   2       32525   32505   32527   0.
CTRIA3   39279   2       32527   11557   32525   0.
CTRIA3   39280   2       11554   32525   11557   0.
CTRIA3   39281   2       32505   32525   32507   0.
CTRIA3   39282   2       11555   32507   32525   0.
CTRIA3   39283   2       32525   11554   11555   0.
CTRIA3   39284   2       32507   11555   32456   0.
CTRIA3   39285   2       32530   32529   32528   0.
CTRIA3   39286   2       32527   32528   32529   0.
CTRIA3   39287   2       32529   11557   32527   0.
CTRIA3   39288   2       32528   32527   32504   0.
CTRIA3   39289   2       32540   32539   32537   0.
CTRIA3   39290   2       32536   32537   32539   0.
CTRIA3   39291   2       32539   32538   32536   0.
CTRIA3   39292   2       32532   32536   32538   0.
CTRIA3   39293   2       32538   32531   32532   0.
CTRIA3   39294   2       32537   32536   32535   0.
CTRIA3   39295   2       32533   32535   32536   0.
CTRIA3   39296   2       32536   32532   32533   0.
CTRIA3   39297   2       32535   32533   32534   0.
CTRIA3   39298   2       32498   32545   32543   0.
CTRIA3   39299   2       32542   32543   32545   0.
CTRIA3   39300   2       32545   32544   32542   0.
CTRIA3   39301   2       32538   32542   32544   0.
CTRIA3   39302   2       32544   32531   32538   0.
CTRIA3   39303   2       32543   32542   32541   0.
CTRIA3   39304   2       32539   32541   32542   0.
CTRIA3   39305   2       32542   32538   32539   0.
CTRIA3   39306   2       32541   32539   32540   0.
CTRIA3   39307   2       32486   32548   32519   0.
CTRIA3   39308   2       32546   32519   32548   0.
CTRIA3   39309   2       32548   32547   32546   0.
CTRIA3   39310   2       32544   32546   32547   0.
CTRIA3   39311   2       32547   32531   32544   0.
CTRIA3   39313   2       32545   32521   32546   0.
CTRIA3   39314   2       32546   32544   32545   0.
CTRIA3   39315   2       32521   32545   32498   0.
CTRIA3   39316   2       32480   32551   32481   0.
CTRIA3   39317   2       32549   32481   32551   0.
CTRIA3   39318   2       32551   32550   32549   0.
CTRIA3   39319   2       32547   32549   32550   0.
CTRIA3   39320   2       32550   32531   32547   0.
CTRIA3   39321   2       32481   32549   32483   0.
CTRIA3   39322   2       32548   32483   32549   0.
CTRIA3   39323   2       32549   32547   32548   0.
CTRIA3   39324   2       32483   32548   32486   0.
CTRIA3   39325   2       32557   32556   32554   0.
CTRIA3   39326   2       32553   32554   32556   0.
CTRIA3   39327   2       32556   32555   32553   0.
CTRIA3   39328   2       32550   32553   32555   0.
CTRIA3   39329   2       32555   32531   32550   0.
CTRIA3   39330   2       32554   32553   32552   0.
CTRIA3   39331   2       32551   32552   32553   0.
CTRIA3   39332   2       32553   32550   32551   0.
CTRIA3   39333   2       32552   32551   32480   0.
CTRIA3   39334   2       32534   32533   32560   0.
CTRIA3   39335   2       32559   32560   32533   0.
CTRIA3   39336   2       32533   32532   32559   0.
CTRIA3   39337   2       32555   32559   32532   0.
CTRIA3   39338   2       32532   32531   32555   0.
CTRIA3   39340   2       32556   32558   32559   0.
CTRIA3   39341   2       32559   32555   32556   0.
CTRIA3   39342   2       32558   32556   32557   0.
CTRIA3   39343   2       32566   10661   32569   0.
CTRIA3   39344   2       32569   32568   32566   0.
CTRIA3   39345   2       32562   32566   32568   0.
CTRIA3   39346   2       32568   32561   32562   0.
CTRIA3   39347   2       10661   32566   10660   0.
CTRIA3   39348   2       32563   10660   32566   0.
CTRIA3   39349   2       32566   32562   32563   0.
CTRIA3   39350   2       10660   32563   10659   0.
CTRIA3   39351   2       32572   32571   32570   0.
CTRIA3   39352   2       32568   32570   32571   0.
CTRIA3   39353   2       32571   32561   32568   0.
CTRIA3   39354   2       32570   32568   32569   0.
CTRIA3   39355   2       32504   32575   32528   0.
CTRIA3   39356   2       32573   32528   32575   0.
CTRIA3   39357   2       32575   32574   32573   0.
CTRIA3   39358   2       32571   32573   32574   0.
CTRIA3   39359   2       32574   32561   32571   0.
CTRIA3   39360   2       32528   32573   32530   0.
CTRIA3   39361   2       32572   32530   32573   0.
CTRIA3   39362   2       32573   32571   32572   0.
CTRIA3   39363   2       32498   32578   32499   0.
CTRIA3   39364   2       32576   32499   32578   0.
CTRIA3   39365   2       32578   32577   32576   0.
CTRIA3   39366   2       32574   32576   32577   0.
CTRIA3   39367   2       32577   32561   32574   0.
CTRIA3   39368   2       32499   32576   32501   0.
CTRIA3   39369   2       32575   32501   32576   0.
CTRIA3   39370   2       32576   32574   32575   0.
CTRIA3   39371   2       32501   32575   32504   0.
CTRIA3   39372   2       32540   32581   32541   0.
CTRIA3   39373   2       32579   32541   32581   0.
CTRIA3   39374   2       32581   32580   32579   0.
CTRIA3   39375   2       32577   32579   32580   0.
CTRIA3   39376   2       32580   32561   32577   0.
CTRIA3   39377   2       32541   32579   32543   0.
CTRIA3   39378   2       32578   32543   32579   0.
CTRIA3   39379   2       32579   32577   32578   0.
CTRIA3   39380   2       32543   32578   32498   0.
CTRIA3   39381   2       10659   32563   32584   0.
CTRIA3   39382   2       32583   32584   32563   0.
CTRIA3   39383   2       32563   32562   32583   0.
CTRIA3   39384   2       32580   32583   32562   0.
CTRIA3   39385   2       32562   32561   32580   0.
CTRIA3   39386   2       32584   32583   32582   0.
CTRIA3   39387   2       32581   32582   32583   0.
CTRIA3   39388   2       32583   32580   32581   0.
CTRIA3   39389   2       32582   32581   32540   0.
CTRIA3   39390   2       32589   10233   10686   0.
CTRIA3   39391   2       10233   32589   24951   0.
CTRIA3   39392   2       10686   32590   32589   0.
CTRIA3   39393   2       32534   32560   32598   0.
CTRIA3   39394   2       32596   32598   32560   0.
CTRIA3   39395   2       32598   32596   32597   0.
CTRIA3   39396   2       32594   32597   32596   0.
CTRIA3   39397   2       32597   32594   24951   0.
CTRIA3   39400   2       32596   32595   32594   0.
CTRIA3   39401   2       32558   32557   32595   0.
CTRIA3   39402   2       10685   32585   32590   0.
CTRIA3   39403   2       32599   32590   32585   0.
CTRIA3   39404   2       32590   32599   32589   0.
CTRIA3   39405   2       32597   32589   32599   0.
CTRIA3   39406   2       32589   32597   24951   0.
CTRIA3   39407   2       32585   32586   32599   0.
CTRIA3   39408   2       32598   32599   32586   0.
CTRIA3   39409   2       32599   32598   32597   0.
CTRIA3   39410   2       32586   32534   32598   0.
CTRIA3   39415   2       32534   32586   32609   0.
CTRIA3   39416   2       32607   32609   32586   0.
CTRIA3   39417   2       32609   32607   32608   0.
CTRIA3   39418   2       11660   32608   32607   0.
CTRIA3   39419   2       32608   11660   11659   0.
CTRIA3   39420   2       32586   32585   32607   0.
CTRIA3   39421   2       10691   32607   32585   0.
CTRIA3   39422   2       32607   10691   11660   0.
CTRIA3   39423   2       32585   10685   10691   0.
CTRIA3   39424   2       32540   32537   32612   0.
CTRIA3   39425   2       32610   32612   32537   0.
CTRIA3   39426   2       32612   32610   32611   0.
CTRIA3   39427   2       32608   32611   32610   0.
CTRIA3   39428   2       32611   32608   11659   0.
CTRIA3   39429   2       32537   32535   32610   0.
CTRIA3   39430   2       32609   32610   32535   0.
CTRIA3   39431   2       32610   32609   32608   0.
CTRIA3   39432   2       32535   32534   32609   0.
CTRIA3   39433   2       10659   32584   11669   0.
CTRIA3   39434   2       32613   11669   32584   0.
CTRIA3   39435   2       11669   32613   11668   0.
CTRIA3   39436   2       32611   11668   32613   0.
CTRIA3   39437   2       11668   32611   11659   0.
CTRIA3   39438   2       32584   32582   32613   0.
CTRIA3   39439   2       32612   32613   32582   0.
CTRIA3   39440   2       32613   32612   32611   0.
CTRIA3   39441   2       32582   32540   32612   0.
CTRIA3   39458   2       32590   32622   10685   0.
CTRIA3   39459   2       10686   32622   32590   0.
CTRIA3   39510   2       32645   32717   32644   0.
CTRIA3   39511   2       10074   32644   32717   0.
CTRIA3   39512   2       32717   10076   10074   0.
CTRIA3   39515   2       32644   10074   10073   0.
CTRIA3   39519   2       32449   32720   32647   0.
CTRIA3   39520   2       32718   32647   32720   0.
CTRIA3   39521   2       32720   10082   32718   0.
CTRIA3   39522   2       10076   32718   10082   0.
CTRIA3   39524   2       32647   32718   32646   0.
CTRIA3   39525   2       32717   32646   32718   0.
CTRIA3   39526   2       32718   10076   32717   0.
CTRIA3   39527   2       32646   32717   32645   0.
CTRIA3   39533   2       10024   10084   32446   0.
CTRIA3   39534   2       32720   32446   10084   0.
CTRIA3   39535   2       10084   10082   32720   0.
CTRIA3   39536   2       32446   32720   32449   0.
CTRIA3   39564   2       32480   32479   32652   0.
CTRIA3   39565   2       32733   32652   32479   0.
CTRIA3   39566   2       32479   32478   32733   0.
CTRIA3   39567   2       32731   32733   32478   0.
CTRIA3   39568   2       32478   32477   32731   0.
CTRIA3   39569   2       32652   32733   32651   0.
CTRIA3   39570   2       32732   32651   32733   0.
CTRIA3   39571   2       32733   32731   32732   0.
CTRIA3   39572   2       32651   32732   32650   0.
CTRIA3   39573   2       32645   32736   32646   0.
CTRIA3   39574   2       32734   32646   32736   0.
CTRIA3   39575   2       32736   32735   32734   0.
CTRIA3   39576   2       32493   32734   32735   0.
CTRIA3   39577   2       32735   32477   32493   0.
CTRIA3   39578   2       32646   32734   32647   0.
CTRIA3   39579   2       32494   32647   32734   0.
CTRIA3   39580   2       32734   32493   32494   0.
CTRIA3   39581   2       32647   32494   32449   0.
CTRIA3   39582   2       32650   32732   32654   0.
CTRIA3   39583   2       32737   32654   32732   0.
CTRIA3   39584   2       32732   32731   32737   0.
CTRIA3   39585   2       32735   32737   32731   0.
CTRIA3   39586   2       32731   32477   32735   0.
CTRIA3   39588   2       32736   32653   32737   0.
CTRIA3   39589   2       32737   32735   32736   0.
CTRIA3   39590   2       32653   32736   32645   0.
CTRIA3   39642   2       32650   32764   32665   0.
CTRIA3   39644   2       32764   32763   24919   0.
CTRIA3   39645   2       10181   24919   32763   0.
CTRIA3   39646   2       32763   24913   10181   0.
CTRIA3   39651   2       32645   32767   32653   0.
CTRIA3   39652   2       32765   32653   32767   0.
CTRIA3   39653   2       32767   32766   32765   0.
CTRIA3   39654   2       32763   32765   32766   0.
CTRIA3   39655   2       32766   24913   32763   0.
CTRIA3   39658   2       32765   32763   32764   0.
CTRIA3   39659   2       32654   32764   32650   0.
CTRIA3   39661   2       32768   10073   10194   0.
CTRIA3   39662   2       10194   32769   32768   0.
CTRIA3   39663   2       32766   32768   32769   0.
CTRIA3   39664   2       32769   24913   32766   0.
CTRIA3   39665   2       10073   32768   32644   0.
CTRIA3   39666   2       32767   32644   32768   0.
CTRIA3   39667   2       32768   32766   32767   0.
CTRIA3   39668   2       32644   32767   32645   0.
CTRIA3   39672   2       32769   10195   10196   0.
CTRIA3   39673   2       10196   24913   32769   0.
CTRIA3   39676   2       10195   32769   10194   0.
CTRIA3   39696   2       32557   32783   32673   0.
CTRIA3   39697   2       24938   32673   32783   0.
CTRIA3   39698   2       32783   32782   24938   0.
CTRIA3   39700   2       32782   24932   10208   0.
CTRIA3   39705   2       32480   32786   32552   0.
CTRIA3   39706   2       32784   32552   32786   0.
CTRIA3   39707   2       32786   32785   32784   0.
CTRIA3   39708   2       32782   32784   32785   0.
CTRIA3   39709   2       32785   24932   32782   0.
CTRIA3   39710   2       32552   32784   32554   0.
CTRIA3   39711   2       32783   32554   32784   0.
CTRIA3   39712   2       32784   32782   32783   0.
CTRIA3   39713   2       32554   32783   32557   0.
CTRIA3   39714   2       32650   32789   32651   0.
CTRIA3   39715   2       32787   32651   32789   0.
CTRIA3   39716   2       32789   32788   32787   0.
CTRIA3   39717   2       32785   32787   32788   0.
CTRIA3   39718   2       32788   24932   32785   0.
CTRIA3   39719   2       32651   32787   32652   0.
CTRIA3   39720   2       32786   32652   32787   0.
CTRIA3   39721   2       32787   32785   32786   0.
CTRIA3   39722   2       32652   32786   32480   0.
CTRIA3   39726   2       32788   24947   10223   0.
CTRIA3   39727   2       10223   24932   32788   0.
CTRIA3   39729   2       32789   32665   24947   0.
CTRIA3   39730   2       24947   32788   32789   0.
CTRIA3   39731   2       32665   32789   32650   0.
CTRIA3   39747   2       32594   24956   10237   0.
CTRIA3   39748   2       10237   24951   32594   0.
CTRIA3   39751   2       24956   32594   32595   0.
CTRIA3   39752   2       32673   32595   32557   0.
CTRIA3   42028   2       10629   11543   34201   0.
CTRIA3   42065   2       34201   11543   32530   0.
CTRIA3   42066   2       32529   32530   11543   0.
CTRIA3   42067   2       11543   11542   32529   0.
CTRIA3   42068   2       11557   32529   11542   0.
CTRIA3   42090   2       10662   32569   10661   0.
CTRIA3   42144   2       34201   32572   34271   0.
CTRIA3   42145   2       32570   34271   32572   0.
CTRIA3   42149   2       34271   32570   34269   0.
CTRIA3   42150   2       32569   34269   32570   0.
CTRIA3   42152   2       34269   32569   10662   0.
CTRIA3   42161   2       32530   32572   34201   0.
CTRIA3   42198   2       34201   11643   10629   0.
CTRIA3   42207   2       10662   11646   34269   0.
CTRIA3   42208   2       34299   34269   11646   0.
CTRIA3   42209   2       11646   11645   34299   0.
CTRIA3   42210   2       11642   34299   11645   0.
CTRIA3   42212   2       34269   34299   34271   0.
CTRIA3   42213   2       11643   34271   34299   0.
CTRIA3   42214   2       34299   11642   11643   0.
CTRIA3   42215   2       34271   11643   34201   0.
CQUAD4   42327   2       10685   32622   34367   11707   0.
CQUAD4   42328   2       32622   10686   11676   34367   0.
CTRIA3   45102   2       36419   11714   10707   0.
CTRIA3   45188   2       36437   36646   36436   0.
CTRIA3   45189   2       36644   36436   36646   0.
CTRIA3   45190   2       36646   36645   36644   0.
CTRIA3   45191   2       36642   36644   36645   0.
CTRIA3   45192   2       36645   36641   36642   0.
CTRIA3   45193   2       36436   36644   10728   0.
CTRIA3   45194   2       11745   10728   36644   0.
CTRIA3   45195   2       36644   36642   11745   0.
CTRIA3   45197   2       36422   36649   36439   0.
CTRIA3   45198   2       36647   36439   36649   0.
CTRIA3   45199   2       36649   36648   36647   0.
CTRIA3   45200   2       36645   36647   36648   0.
CTRIA3   45201   2       36648   36641   36645   0.
CTRIA3   45202   2       36439   36647   36438   0.
CTRIA3   45203   2       36646   36438   36647   0.
CTRIA3   45204   2       36647   36645   36646   0.
CTRIA3   45205   2       36438   36646   36437   0.
CTRIA3   45206   2       36419   36652   36539   0.
CTRIA3   45207   2       36650   36539   36652   0.
CTRIA3   45208   2       36652   36651   36650   0.
CTRIA3   45209   2       36648   36650   36651   0.
CTRIA3   45210   2       36651   36641   36648   0.
CTRIA3   45211   2       36539   36650   36540   0.
CTRIA3   45212   2       36649   36540   36650   0.
CTRIA3   45213   2       36650   36648   36649   0.
CTRIA3   45214   2       36540   36649   36422   0.
CTRIA3   45216   2       36653   10706   11757   0.
CTRIA3   45217   2       11757   36654   36653   0.
CTRIA3   45218   2       36651   36653   36654   0.
CTRIA3   45219   2       36654   36641   36651   0.
CTRIA3   45220   2       10706   36653   10707   0.
CTRIA3   45221   2       36652   10707   36653   0.
CTRIA3   45222   2       36653   36651   36652   0.
CTRIA3   45223   2       10707   36652   36419   0.
CTRIA3   45225   2       36656   10723   11760   0.
CTRIA3   45226   2       11760   36657   36656   0.
CTRIA3   45227   2       36654   36656   36657   0.
CTRIA3   45228   2       36657   36641   36654   0.
CTRIA3   45229   2       10723   36656   10724   0.
CTRIA3   45230   2       11757   10724   36656   0.
CTRIA3   45231   2       36656   36654   11757   0.
CTRIA3   45235   2       11745   36642   11761   0.
CTRIA3   45236   2       36657   11761   36642   0.
CTRIA3   45237   2       36642   36641   36657   0.
CTRIA3   45240   2       11761   36657   11760   0.
CTRIA3   45251   2       36437   36670   36438   0.
CTRIA3   45252   2       36668   36438   36670   0.
CTRIA3   45256   2       36438   36668   36439   0.
CTRIA3   45257   2       36667   36439   36668   0.
CTRIA3   45259   2       36439   36667   36422   0.
CTRIA3   45344   2       10728   11824   36436   0.
CTRIA3   45345   2       36702   36436   11824   0.
CTRIA3   45347   2       36436   36702   36437   0.
CTRIA3   45421   2       10778   36729   11851   0.
CTRIA3   45423   2       36465   36736   36466   0.
CTRIA3   45424   2       36734   36466   36736   0.
CTRIA3   45425   2       36736   36735   36734   0.
CTRIA3   45426   2       36732   36734   36735   0.
CTRIA3   45427   2       36735   36729   36732   0.
CTRIA3   45433   2       36737   10780   11852   0.
CTRIA3   45434   2       11852   11851   36737   0.
CTRIA3   45435   2       36735   36737   11851   0.
CTRIA3   45436   2       11851   36729   36735   0.
CTRIA3   45437   2       10780   36737   36473   0.
CTRIA3   45438   2       36736   36473   36737   0.
CTRIA3   45439   2       36737   36735   36736   0.
CTRIA3   45440   2       36473   36736   36465   0.
CTRIA3   45535   2       36465   36777   36473   0.
CTRIA3   45536   2       36775   36473   36777   0.
CTRIA3   45537   2       36777   11926   36775   0.
CTRIA3   45538   2       11924   36775   11926   0.
CTRIA3   45540   2       36473   36775   10780   0.
CTRIA3   45541   2       10814   10780   36775   0.
CTRIA3   45542   2       36775   11924   10814   0.
CTRIA3   45550   2       36777   36464   11928   0.
CTRIA3   45551   2       11928   11926   36777   0.
CTRIA3   45552   2       36464   36777   36465   0.
CTRIA3   45712   2       10881   11714   36419   0.
CTRIA3   45713   2       36536   36858   36535   0.
CTRIA3   45714   2       36856   36535   36858   0.
CTRIA3   45715   2       36858   36857   36856   0.
CTRIA3   45716   2       36854   36856   36857   0.
CTRIA3   45717   2       36857   36853   36854   0.
CTRIA3   45718   2       36535   36856   36534   0.
CTRIA3   45719   2       36855   36534   36856   0.
CTRIA3   45720   2       36856   36854   36855   0.
CTRIA3   45721   2       36534   36855   36533   0.
CTRIA3   45723   2       36530   36861   36538   0.
CTRIA3   45724   2       36859   36538   36861   0.
CTRIA3   45725   2       36861   36860   36859   0.
CTRIA3   45726   2       36857   36859   36860   0.
CTRIA3   45727   2       36860   36853   36857   0.
CTRIA3   45728   2       36538   36859   36537   0.
CTRIA3   45729   2       36858   36537   36859   0.
CTRIA3   45730   2       36859   36857   36858   0.
CTRIA3   45731   2       36537   36858   36536   0.
CTRIA3   45733   2       36862   10893   12129   0.
CTRIA3   45734   2       12129   36863   36862   0.
CTRIA3   45735   2       36860   36862   36863   0.
CTRIA3   45736   2       36863   36853   36860   0.
CTRIA3   45737   2       10893   36862   10894   0.
CTRIA3   45738   2       36861   10894   36862   0.
CTRIA3   45739   2       36862   36860   36861   0.
CTRIA3   45740   2       10894   36861   36530   0.
CTRIA3   45741   2       36419   36867   10881   0.
CTRIA3   45742   2       36865   10881   36867   0.
CTRIA3   45743   2       36867   36866   36865   0.
CTRIA3   45744   2       36863   36865   36866   0.
CTRIA3   45745   2       36866   36853   36863   0.
CTRIA3   45746   2       10881   36865   10882   0.
CTRIA3   45747   2       12129   10882   36865   0.
CTRIA3   45748   2       36865   36863   12129   0.
CTRIA3   45750   2       36422   36870   36540   0.
CTRIA3   45751   2       36868   36540   36870   0.
CTRIA3   45752   2       36870   36869   36868   0.
CTRIA3   45753   2       36866   36868   36869   0.
CTRIA3   45754   2       36869   36853   36866   0.
CTRIA3   45755   2       36540   36868   36539   0.
CTRIA3   45756   2       36867   36539   36868   0.
CTRIA3   45757   2       36868   36866   36867   0.
CTRIA3   45758   2       36539   36867   36419   0.
CTRIA3   45759   2       36533   36855   36542   0.
CTRIA3   45760   2       36871   36542   36855   0.
CTRIA3   45761   2       36855   36854   36871   0.
CTRIA3   45762   2       36869   36871   36854   0.
CTRIA3   45763   2       36854   36853   36869   0.
CTRIA3   45764   2       36542   36871   36541   0.
CTRIA3   45765   2       36870   36541   36871   0.
CTRIA3   45766   2       36871   36869   36870   0.
CTRIA3   45767   2       36541   36870   36422   0.
CTRIA3   45768   2       36875   10922   12142   0.
CTRIA3   45769   2       12142   36876   36875   0.
CTRIA3   45770   2       36873   36875   36876   0.
CTRIA3   45771   2       36876   36872   36873   0.
CTRIA3   45772   2       10922   36875   36544   0.
CTRIA3   45773   2       36874   36544   36875   0.
CTRIA3   45774   2       36875   36873   36874   0.
CTRIA3   45775   2       36544   36874   36543   0.
CTRIA3   45776   2       36536   36882   36537   0.
CTRIA3   45777   2       36880   36537   36882   0.
CTRIA3   45778   2       36882   36881   36880   0.
CTRIA3   45779   2       36878   36880   36881   0.
CTRIA3   45780   2       36881   36872   36878   0.
CTRIA3   45781   2       36537   36880   36538   0.
CTRIA3   45782   2       36879   36538   36880   0.
CTRIA3   45783   2       36880   36878   36879   0.
CTRIA3   45784   2       36538   36879   36530   0.
CTRIA3   45785   2       36543   36874   36548   0.
CTRIA3   45786   2       36883   36548   36874   0.
CTRIA3   45787   2       36874   36873   36883   0.
CTRIA3   45788   2       36881   36883   36873   0.
CTRIA3   45789   2       36873   36872   36881   0.
CTRIA3   45790   2       36548   36883   36547   0.
CTRIA3   45791   2       36882   36547   36883   0.
CTRIA3   45792   2       36883   36881   36882   0.
CTRIA3   45793   2       36547   36882   36536   0.
CTRIA3   45803   2       36560   36896   36559   0.
CTRIA3   45813   2       36422   36667   36541   0.
CTRIA3   45814   2       36890   36541   36667   0.
CTRIA3   45818   2       36541   36890   36542   0.
CTRIA3   45819   2       36889   36542   36890   0.
CTRIA3   45821   2       36542   36889   36533   0.
CTRIA3   45822   2       36894   36559   36896   0.
CTRIA3   45823   2       36896   36895   36894   0.
CTRIA3   45824   2       36892   36894   36895   0.
CTRIA3   45825   2       36895   36891   36892   0.
CTRIA3   45826   2       36559   36894   36558   0.
CTRIA3   45827   2       36893   36558   36894   0.
CTRIA3   45828   2       36894   36892   36893   0.
CTRIA3   45829   2       36558   36893   36557   0.
CTRIA3   45830   2       36543   36899   36562   0.
CTRIA3   45831   2       36897   36562   36899   0.
CTRIA3   45832   2       36899   36898   36897   0.
CTRIA3   45833   2       36895   36897   36898   0.
CTRIA3   45834   2       36898   36891   36895   0.
CTRIA3   45835   2       36562   36897   36561   0.
CTRIA3   45836   2       36896   36561   36897   0.
CTRIA3   45837   2       36897   36895   36896   0.
CTRIA3   45838   2       36561   36896   36560   0.
CTRIA3   45839   2       36536   36902   36547   0.
CTRIA3   45840   2       36900   36547   36902   0.
CTRIA3   45841   2       36902   36901   36900   0.
CTRIA3   45842   2       36898   36900   36901   0.
CTRIA3   45843   2       36901   36891   36898   0.
CTRIA3   45844   2       36547   36900   36548   0.
CTRIA3   45845   2       36899   36548   36900   0.
CTRIA3   45846   2       36900   36898   36899   0.
CTRIA3   45847   2       36548   36899   36543   0.
CTRIA3   45848   2       36533   36905   36534   0.
CTRIA3   45849   2       36903   36534   36905   0.
CTRIA3   45853   2       36534   36903   36535   0.
CTRIA3   45854   2       36902   36535   36903   0.
CTRIA3   45855   2       36903   36901   36902   0.
CTRIA3   45856   2       36535   36902   36536   0.
CTRIA3   45902   2       36543   36924   36544   0.
CTRIA3   45903   2       12241   36544   36924   0.
CTRIA3   45904   2       36924   12242   12241   0.
CTRIA3   45907   2       36544   12241   10922   0.
CTRIA3   45911   2       36560   36927   36561   0.
CTRIA3   45912   2       36925   36561   36927   0.
CTRIA3   45913   2       36927   12245   36925   0.
CTRIA3   45914   2       12242   36925   12245   0.
CTRIA3   45916   2       36561   36925   36562   0.
CTRIA3   45917   2       36924   36562   36925   0.
CTRIA3   45918   2       36925   12242   36924   0.
CTRIA3   45919   2       36562   36924   36543   0.
CTRIA3   45925   2       10969   12247   36571   0.
CTRIA3   45926   2       36927   36571   12247   0.
CTRIA3   45927   2       12247   12245   36927   0.
CTRIA3   45928   2       36571   36927   36560   0.
CTRIA3   45995   2       36957   10997   12303   0.
CTRIA3   45996   2       12303   36958   36957   0.
CTRIA3   45997   2       36955   36957   36958   0.
CTRIA3   45998   2       36958   36954   36955   0.
CTRIA3   45999   2       10997   36957   36585   0.
CTRIA3   46000   2       36956   36585   36957   0.
CTRIA3   46001   2       36957   36955   36956   0.
CTRIA3   46002   2       36585   36956   36584   0.
CTRIA3   46005   2       12306   36961   12304   0.
CTRIA3   46006   2       36958   12304   36961   0.
CTRIA3   46007   2       36961   36954   36958   0.
CTRIA3   46010   2       12304   36958   12303   0.
CTRIA3   46012   2       36560   36965   36571   0.
CTRIA3   46013   2       36963   36571   36965   0.
CTRIA3   46014   2       36965   36964   36963   0.
CTRIA3   46015   2       36961   36963   36964   0.
CTRIA3   46016   2       36964   36954   36961   0.
CTRIA3   46017   2       36571   36963   10969   0.
CTRIA3   46018   2       12306   10969   36963   0.
CTRIA3   46019   2       36963   36961   12306   0.
CTRIA3   46021   2       36557   36968   36558   0.
CTRIA3   46022   2       36966   36558   36968   0.
CTRIA3   46023   2       36968   36967   36966   0.
CTRIA3   46024   2       36964   36966   36967   0.
CTRIA3   46025   2       36967   36954   36964   0.
CTRIA3   46026   2       36558   36966   36559   0.
CTRIA3   46027   2       36965   36559   36966   0.
CTRIA3   46028   2       36966   36964   36965   0.
CTRIA3   46029   2       36559   36965   36560   0.
CTRIA3   46030   2       36577   36971   36578   0.
CTRIA3   46031   2       36969   36578   36971   0.
CTRIA3   46032   2       36971   36970   36969   0.
CTRIA3   46033   2       36967   36969   36970   0.
CTRIA3   46034   2       36970   36954   36967   0.
CTRIA3   46035   2       36578   36969   36579   0.
CTRIA3   46036   2       36968   36579   36969   0.
CTRIA3   46037   2       36969   36967   36968   0.
CTRIA3   46038   2       36579   36968   36557   0.
CTRIA3   46039   2       36584   36956   36591   0.
CTRIA3   46040   2       36972   36591   36956   0.
CTRIA3   46041   2       36956   36955   36972   0.
CTRIA3   46042   2       36970   36972   36955   0.
CTRIA3   46043   2       36955   36954   36970   0.
CTRIA3   46044   2       36591   36972   36590   0.
CTRIA3   46045   2       36971   36590   36972   0.
CTRIA3   46046   2       36972   36970   36971   0.
CTRIA3   46047   2       36590   36971   36577   0.
CTRIA3   46073   2       10778   12341   36729   0.
CTRIA3   46075   2       36574   36583   36988   0.
CTRIA3   46076   2       36986   36988   36583   0.
CTRIA3   46077   2       36988   36986   36987   0.
CTRIA3   46078   2       36732   36987   36986   0.
CTRIA3   46079   2       36987   36732   36729   0.
CTRIA3   46085   2       36989   12342   11015   0.
CTRIA3   46086   2       12342   36989   12341   0.
CTRIA3   46087   2       36987   12341   36989   0.
CTRIA3   46088   2       12341   36987   36729   0.
CTRIA3   46089   2       11015   36594   36989   0.
CTRIA3   46090   2       36988   36989   36594   0.
CTRIA3   46091   2       36989   36988   36987   0.
CTRIA3   46092   2       36594   36574   36988   0.
CTRIA3   46093   2       11025   11023   36990   0.
CTRIA3   46096   2       12348   11025   36990   0.
CTRIA3   46097   2       36574   36594   36994   0.
CTRIA3   46098   2       36992   36994   36594   0.
CTRIA3   46099   2       36994   36992   36993   0.
CTRIA3   46100   2       12348   36993   36992   0.
CTRIA3   46101   2       36993   12348   36990   0.
CTRIA3   46102   2       36594   11015   36992   0.
CTRIA3   46103   2       11027   36992   11015   0.
CTRIA3   46104   2       36992   11027   12348   0.
CTRIA3   46108   2       36997   36995   36996   0.
CTRIA3   46109   2       36993   36996   36995   0.
CTRIA3   46110   2       36996   36993   36990   0.
CTRIA3   46112   2       36994   36995   36575   0.
CTRIA3   46113   2       36995   36994   36993   0.
CTRIA3   46114   2       36575   36574   36994   0.
CTRIA3   46115   2       36584   36591   37000   0.
CTRIA3   46116   2       36998   37000   36591   0.
CTRIA3   46117   2       37000   36998   36999   0.
CTRIA3   46118   2       36996   36999   36998   0.
CTRIA3   46119   2       36999   36996   36990   0.
CTRIA3   46120   2       36591   36590   36998   0.
CTRIA3   46121   2       36997   36998   36590   0.
CTRIA3   46122   2       36998   36997   36996   0.
CTRIA3   46123   2       36590   36577   36997   0.
CTRIA3   46124   2       37001   11024   11028   0.
CTRIA3   46125   2       11024   37001   11023   0.
CTRIA3   46126   2       36999   11023   37001   0.
CTRIA3   46127   2       11023   36999   36990   0.
CTRIA3   46128   2       11028   36595   37001   0.
CTRIA3   46129   2       37000   37001   36595   0.
CTRIA3   46130   2       37001   37000   36999   0.
CTRIA3   46131   2       36595   36584   37000   0.
CTRIA3   46132   2       36584   36595   37002   0.
CTRIA3   46133   2       36604   37002   36595   0.
CTRIA3   46134   2       37002   36604   11031   0.
CTRIA3   46135   2       36595   11028   36604   0.
CTRIA3   46140   2       10997   36585   12360   0.
CTRIA3   46141   2       37002   12360   36585   0.
CTRIA3   46142   2       12360   37002   11031   0.
CTRIA3   46143   2       36585   36584   37002   0.
CQUAD4   46150   2       11031   36604   37009   12387   0.
CQUAD4   46151   2       36604   11028   12389   37009   0.
CTRIA3   50326   2       10888   12070   36530   0.
CTRIA3   50363   2       36530   12070   10894   0.
CTRIA3   50446   2       12145   39741   12143   0.
CTRIA3   50447   2       36876   12143   39741   0.
CTRIA3   50448   2       39741   36872   36876   0.
CTRIA3   50451   2       12143   36876   12142   0.
CTRIA3   50454   2       39743   10901   12148   0.
CTRIA3   50455   2       12148   39744   39743   0.
CTRIA3   50456   2       39741   39743   39744   0.
CTRIA3   50457   2       39744   36872   39741   0.
CTRIA3   50458   2       10901   39743   10902   0.
CTRIA3   50459   2       12145   10902   39743   0.
CTRIA3   50460   2       39743   39741   12145   0.
CTRIA3   50462   2       36530   36879   10888   0.
CTRIA3   50463   2       39746   10888   36879   0.
CTRIA3   50464   2       36879   36878   39746   0.
CTRIA3   50465   2       39744   39746   36878   0.
CTRIA3   50466   2       36878   36872   39744   0.
CTRIA3   50467   2       10888   39746   10889   0.
CTRIA3   50468   2       12148   10889   39746   0.
CTRIA3   50469   2       39746   39744   12148   0.
CTRIA3   57431   2       43953   12402   11043   0.
CTRIA3   57524   2       43974   44298   11065   0.
CTRIA3   57525   2       12434   11065   44298   0.
CTRIA3   57526   2       44298   12435   12434   0.
CTRIA3   57533   2       43957   44301   43976   0.
CTRIA3   57534   2       44299   43976   44301   0.
CTRIA3   57535   2       44301   44300   44299   0.
CTRIA3   57536   2       12435   44299   44300   0.
CTRIA3   57537   2       44300   12431   12435   0.
CTRIA3   57539   2       44298   43975   44299   0.
CTRIA3   57540   2       44299   12435   44298   0.
CTRIA3   57541   2       43975   44298   43974   0.
CTRIA3   57542   2       43953   44304   44101   0.
CTRIA3   57543   2       44302   44101   44304   0.
CTRIA3   57544   2       44304   12441   44302   0.
CTRIA3   57545   2       44300   44302   12441   0.
CTRIA3   57546   2       12441   12431   44300   0.
CTRIA3   57547   2       44101   44302   44102   0.
CTRIA3   57548   2       44301   44102   44302   0.
CTRIA3   57549   2       44302   44300   44301   0.
CTRIA3   57550   2       44102   44301   43957   0.
CTRIA3   57557   2       44304   11043   12443   0.
CTRIA3   57558   2       12443   12441   44304   0.
CTRIA3   57559   2       11043   44304   43953   0.
CTRIA3   57595   2       43976   44319   43957   0.
CTRIA3   57616   2       43993   44334   11098   0.
CTRIA3   57617   2       12503   11098   44334   0.
CTRIA3   57618   2       44334   12504   12503   0.
CTRIA3   57628   2       12504   44335   44336   0.
CTRIA3   57629   2       44336   12500   12504   0.
CTRIA3   57631   2       44334   43994   44335   0.
CTRIA3   57632   2       44335   12504   44334   0.
CTRIA3   57633   2       43994   44334   43993   0.
CTRIA3   57634   2       43974   44340   43983   0.
CTRIA3   57635   2       44338   43983   44340   0.
CTRIA3   57636   2       44340   12510   44338   0.
CTRIA3   57637   2       44336   44338   12510   0.
CTRIA3   57638   2       12510   12500   44336   0.
CTRIA3   57649   2       44340   11065   12512   0.
CTRIA3   57650   2       12512   12510   44340   0.
CTRIA3   57651   2       11065   44340   43974   0.
CTRIA3   57801   2       43993   12603   11110   0.
CTRIA3   57818   2       11098   12603   43993   0.
CTRIA3   58038   2       11215   12402   43953   0.
CTRIA3   58123   2       44098   44532   44097   0.
CTRIA3   58124   2       44530   44097   44532   0.
CTRIA3   58125   2       44532   44531   44530   0.
CTRIA3   58126   2       44528   44530   44531   0.
CTRIA3   58127   2       44531   44527   44528   0.
CTRIA3   58128   2       44097   44530   44096   0.
CTRIA3   58129   2       44529   44096   44530   0.
CTRIA3   58130   2       44530   44528   44529   0.
CTRIA3   58131   2       44096   44529   44095   0.
CTRIA3   58136   2       44531   12804   12805   0.
CTRIA3   58137   2       12805   44527   44531   0.
CTRIA3   58139   2       44532   11246   12804   0.
CTRIA3   58140   2       12804   44531   44532   0.
CTRIA3   58141   2       11246   44532   44098   0.
CTRIA3   58146   2       12808   44527   12805   0.
CTRIA3   58151   2       43953   44541   11215   0.
CTRIA3   58152   2       12810   11215   44541   0.
CTRIA3   58153   2       44541   44540   12810   0.
CTRIA3   58154   2       12808   12810   44540   0.
CTRIA3   58155   2       44540   44527   12808   0.
CTRIA3   58160   2       43957   44544   44102   0.
CTRIA3   58161   2       44542   44102   44544   0.
CTRIA3   58162   2       44544   44543   44542   0.
CTRIA3   58163   2       44540   44542   44543   0.
CTRIA3   58164   2       44543   44527   44540   0.
CTRIA3   58165   2       44102   44542   44101   0.
CTRIA3   58166   2       44541   44101   44542   0.
CTRIA3   58167   2       44542   44540   44541   0.
CTRIA3   58168   2       44101   44541   43953   0.
CTRIA3   58169   2       44095   44529   44104   0.
CTRIA3   58170   2       44545   44104   44529   0.
CTRIA3   58171   2       44529   44528   44545   0.
CTRIA3   58172   2       44543   44545   44528   0.
CTRIA3   58173   2       44528   44527   44543   0.
CTRIA3   58174   2       44104   44545   44103   0.
CTRIA3   58175   2       44544   44103   44545   0.
CTRIA3   58176   2       44545   44543   44544   0.
CTRIA3   58177   2       44103   44544   43957   0.
CTRIA3   58185   2       11253   12819   44105   0.
CTRIA3   58213   2       44098   12834   11246   0.
CTRIA3   58222   2       44105   12819   44112   0.
CTRIA3   58223   2       12835   44112   12819   0.
CTRIA3   58227   2       44112   12835   44111   0.
CTRIA3   58228   2       12834   44111   12835   0.
CTRIA3   58230   2       44111   12834   44098   0.
CTRIA3   58258   2       44125   44585   44124   0.
CTRIA3   58259   2       44095   44578   44121   0.
CTRIA3   58268   2       43957   44319   44103   0.
CTRIA3   58269   2       44579   44103   44319   0.
CTRIA3   58273   2       44103   44579   44104   0.
CTRIA3   58274   2       44578   44104   44579   0.
CTRIA3   58276   2       44104   44578   44095   0.
CTRIA3   58277   2       44583   44124   44585   0.
CTRIA3   58278   2       44585   44584   44583   0.
CTRIA3   58279   2       44581   44583   44584   0.
CTRIA3   58280   2       44584   44580   44581   0.
CTRIA3   58285   2       44105   44588   44127   0.
CTRIA3   58286   2       44586   44127   44588   0.
CTRIA3   58287   2       44588   44587   44586   0.
CTRIA3   58288   2       44584   44586   44587   0.
CTRIA3   58289   2       44587   44580   44584   0.
CTRIA3   58290   2       44127   44586   44126   0.
CTRIA3   58291   2       44585   44126   44586   0.
CTRIA3   58292   2       44586   44584   44585   0.
CTRIA3   58293   2       44126   44585   44125   0.
CTRIA3   58294   2       44098   44591   44111   0.
CTRIA3   58295   2       44589   44111   44591   0.
CTRIA3   58296   2       44591   44590   44589   0.
CTRIA3   58297   2       44587   44589   44590   0.
CTRIA3   58298   2       44590   44580   44587   0.
CTRIA3   58299   2       44111   44589   44112   0.
CTRIA3   58300   2       44588   44112   44589   0.
CTRIA3   58301   2       44589   44587   44588   0.
CTRIA3   58302   2       44112   44588   44105   0.
CTRIA3   58303   2       44095   44594   44096   0.
CTRIA3   58304   2       44592   44096   44594   0.
CTRIA3   58305   2       44594   44593   44592   0.
CTRIA3   58306   2       44590   44592   44593   0.
CTRIA3   58307   2       44593   44580   44590   0.
CTRIA3   58308   2       44096   44592   44097   0.
CTRIA3   58309   2       44591   44097   44592   0.
CTRIA3   58310   2       44592   44590   44591   0.
CTRIA3   58311   2       44097   44591   44098   0.
CTRIA3   58315   2       44593   44595   44596   0.
CTRIA3   58316   2       44596   44580   44593   0.
CTRIA3   58318   2       44594   44121   44595   0.
CTRIA3   58319   2       44595   44593   44594   0.
CTRIA3   58320   2       44121   44594   44095   0.
CTRIA3   58325   2       44581   44580   44596   0.
CTRIA3   58334   2       12910   44599   12907   0.
CTRIA3   58343   2       12913   44599   12910   0.
CTRIA3   58352   2       12916   44599   12913   0.
CTRIA3   58357   2       44105   44613   11253   0.
CTRIA3   58358   2       12918   11253   44613   0.
CTRIA3   58359   2       44613   44612   12918   0.
CTRIA3   58360   2       12916   12918   44612   0.
CTRIA3   58361   2       44612   44599   12916   0.
CTRIA3   58366   2       44125   44616   44126   0.
CTRIA3   58367   2       44614   44126   44616   0.
CTRIA3   58368   2       44616   44615   44614   0.
CTRIA3   58369   2       44612   44614   44615   0.
CTRIA3   58370   2       44615   44599   44612   0.
CTRIA3   58371   2       44126   44614   44127   0.
CTRIA3   58372   2       44613   44127   44614   0.
CTRIA3   58373   2       44614   44612   44613   0.
CTRIA3   58374   2       44127   44613   44105   0.
CTRIA3   58376   2       44617   11300   12908   0.
CTRIA3   58377   2       12908   12907   44617   0.
CTRIA3   58378   2       44615   44617   12907   0.
CTRIA3   58379   2       12907   44599   44615   0.
CTRIA3   58380   2       11300   44617   44136   0.
CTRIA3   58381   2       44616   44136   44617   0.
CTRIA3   58382   2       44617   44615   44616   0.
CTRIA3   58383   2       44136   44616   44125   0.
CTRIA3   58402   2       44145   44631   44144   0.
CTRIA3   58420   2       44146   44631   44145   0.
CTRIA3   58460   2       12979   44645   12976   0.
CTRIA3   58469   2       12982   44645   12979   0.
CTRIA3   58474   2       44125   44656   44136   0.
CTRIA3   58475   2       44654   44136   44656   0.
CTRIA3   58476   2       44656   44655   44654   0.
CTRIA3   58477   2       12982   44654   44655   0.
CTRIA3   58478   2       44655   44645   12982   0.
CTRIA3   58479   2       44136   44654   11300   0.
CTRIA3   58480   2       12983   11300   44654   0.
CTRIA3   58481   2       44654   12982   12983   0.
CTRIA3   58484   2       44657   44123   44659   0.
CTRIA3   58485   2       44659   44658   44657   0.
CTRIA3   58486   2       44655   44657   44658   0.
CTRIA3   58487   2       44658   44645   44655   0.
CTRIA3   58488   2       44123   44657   44124   0.
CTRIA3   58489   2       44656   44124   44657   0.
CTRIA3   58490   2       44657   44655   44656   0.
CTRIA3   58491   2       44124   44656   44125   0.
CTRIA3   58492   2       44145   44662   44146   0.
CTRIA3   58493   2       44660   44146   44662   0.
CTRIA3   58494   2       44662   44661   44660   0.
CTRIA3   58495   2       44658   44660   44661   0.
CTRIA3   58496   2       44661   44645   44658   0.
CTRIA3   58497   2       44146   44660   44147   0.
CTRIA3   58498   2       44659   44147   44660   0.
CTRIA3   58499   2       44660   44658   44659   0.
CTRIA3   58502   2       44663   11333   12977   0.
CTRIA3   58503   2       12977   12976   44663   0.
CTRIA3   58504   2       44661   44663   12976   0.
CTRIA3   58505   2       12976   44645   44661   0.
CTRIA3   58506   2       11333   44663   44158   0.
CTRIA3   58507   2       44662   44158   44663   0.
CTRIA3   58508   2       44663   44661   44662   0.
CTRIA3   58509   2       44158   44662   44145   0.
CTRIA3   58598   2       11355   11353   44692   0.
CTRIA3   58601   2       13025   11355   44692   0.
CTRIA3   58603   2       13026   44696   11347   0.
CTRIA3   58604   2       44696   13026   44695   0.
CTRIA3   58605   2       13025   44695   13026   0.
CTRIA3   58606   2       44695   13025   44692   0.
CTRIA3   58611   2       44145   44144   44699   0.
CTRIA3   58612   2       44697   44699   44144   0.
CTRIA3   58613   2       44699   44697   44698   0.
CTRIA3   58614   2       44695   44698   44697   0.
CTRIA3   58615   2       44698   44695   44692   0.
CTRIA3   58616   2       44144   44143   44697   0.
CTRIA3   58617   2       44696   44697   44143   0.
CTRIA3   58618   2       44697   44696   44695   0.
CTRIA3   58621   2       44700   13034   11333   0.
CTRIA3   58622   2       13034   44700   13033   0.
CTRIA3   58623   2       44698   13033   44700   0.
CTRIA3   58624   2       13033   44698   44692   0.
CTRIA3   58625   2       11333   44158   44700   0.
CTRIA3   58626   2       44699   44700   44158   0.
CTRIA3   58627   2       44700   44699   44698   0.
CTRIA3   58628   2       44158   44145   44699   0.
CTRIA3   58632   2       11353   13033   44692   0.
CTRIA3   60066   2       10211   45753   24938   0.
CTRIA3   60067   2       45753   32673   24938   0.
CTRIA3   60069   2       45753   10211   24956   0.
CTRIA3   60070   2       32673   45805   32595   0.
CTRIA3   60071   2       45805   24956   32595   0.
CTRIA3   60072   2       24956   45805   45753   0.
CTRIA3   60073   2       45805   32673   45753   0.
CTRIA3   60074   2       32560   45763   32596   0.
CTRIA3   60076   2       32558   45763   32559   0.
CTRIA3   60077   2       45763   32560   32559   0.
CTRIA3   60078   2       32521   45773   32546   0.
CTRIA3   60079   2       45773   32519   32546   0.
CTRIA3   60081   2       45773   32521   32520   0.
CTRIA3   60082   2       32487   45783   32488   0.
CTRIA3   60083   2       45783   32489   32488   0.
CTRIA3   60084   2       32489   45783   32516   0.
CTRIA3   60086   2       32653   45793   32737   0.
CTRIA3   60087   2       45793   32654   32737   0.
CTRIA3   60089   2       45793   32653   32765   0.
CTRIA3   60090   2       10184   45743   24919   0.
CTRIA3   60092   2       32665   45743   24947   0.
CTRIA3   60093   2       45743   10184   24947   0.
CTRIA3   60094   2       10208   10209   32782   0.
CTRIA3   60095   2       10209   24938   32782   0.
CTRIA3   60120   2       32665   45806   45743   0.
CTRIA3   60121   2       45806   24919   45743   0.
CTRIA3   60122   2       24919   45806   32764   0.
CTRIA3   60123   2       45806   32665   32764   0.
CTRIA3   60124   2       32654   45808   32764   0.
CTRIA3   60125   2       45808   32765   32764   0.
CTRIA3   60126   2       32765   45808   45793   0.
CTRIA3   60127   2       45808   32654   45793   0.
CTRIA3   60128   2       32487   45810   45783   0.
CTRIA3   60129   2       45810   32516   45783   0.
CTRIA3   60130   2       32516   45810   32518   0.
CTRIA3   60131   2       45810   32487   32518   0.
CTRIA3   60132   2       32519   45812   32518   0.
CTRIA3   60133   2       45812   32520   32518   0.
CTRIA3   60134   2       32520   45812   45773   0.
CTRIA3   60135   2       45812   32519   45773   0.
CTRIA3   60136   2       32558   45814   45763   0.
CTRIA3   60137   2       45814   32596   45763   0.
CTRIA3   60138   2       32596   45814   32595   0.
CTRIA3   60139   2       45814   32558   32595   0.
CTRIA3   60575   2       36465   46122   36464   0.
CTRIA3   60576   2       46119   36464   46122   0.
CTRIA3   60577   2       46122   46121   46119   0.
CTRIA3   60578   2       46115   46119   46121   0.
CTRIA3   60579   2       36464   46119   10769   0.
CTRIA3   60580   2       11833   10769   46119   0.
CTRIA3   60581   2       46119   46115   11833   0.
CTRIA3   60583   2       36466   46122   36465   0.
CTRIA3   60587   2       11833   46115   11849   0.
CTRIA3   60588   2       46125   11849   46115   0.
CTRIA3   60591   2       11849   46125   11848   0.
CTRIA3   60718   2       10769   11928   36464   0.
CTRIA3   61232   2       46121   46618   46115   0.
CTRIA3   61233   2       46122   36466   46619   0.
CTRIA3   61234   2       46620   10764   11848   0.
CTRIA3   61235   2       11848   46125   46620   0.
CTRIA3   61236   2       46115   46618   46125   0.
CTRIA3   61640   2       46834   46833   46831   0.
CTRIA3   61641   2       46830   46831   46833   0.
CTRIA3   61642   2       46833   46832   46830   0.
CTRIA3   61643   2       46826   46830   46832   0.
CTRIA3   61644   2       46832   46825   46826   0.
CTRIA3   61645   2       46831   46830   46829   0.
CTRIA3   61646   2       46827   46829   46830   0.
CTRIA3   61647   2       46830   46826   46827   0.
CTRIA3   61648   2       46829   46827   46828   0.
CTRIA3   61650   2       36533   36889   46837   0.
CTRIA3   61651   2       46836   46837   36889   0.
CTRIA3   61652   2       36889   46838   46836   0.
CTRIA3   61653   2       46832   46836   46838   0.
CTRIA3   61654   2       46838   46825   46832   0.
CTRIA3   61655   2       46833   46835   46836   0.
CTRIA3   61656   2       46836   46832   46833   0.
CTRIA3   61657   2       46835   46833   46834   0.
CTRIA3   61660   2       36667   46841   36890   0.
CTRIA3   61661   2       46838   36890   46841   0.
CTRIA3   61662   2       46841   46825   46838   0.
CTRIA3   61665   2       36890   46838   36889   0.
CTRIA3   61689   2       36905   46861   36903   0.
CTRIA3   61690   2       36901   36903   46861   0.
CTRIA3   61691   2       46861   36891   36901   0.
CTRIA3   61696   2       46834   46865   46835   0.
CTRIA3   61697   2       46865   46864   46863   0.
CTRIA3   61698   2       46861   46863   46864   0.
CTRIA3   61699   2       46864   36891   46861   0.
CTRIA3   61700   2       36905   46837   46863   0.
CTRIA3   61701   2       46863   46861   36905   0.
CTRIA3   61702   2       46837   36905   36533   0.
CTRIA3   61703   2       36557   36893   46868   0.
CTRIA3   61704   2       46867   46868   36893   0.
CTRIA3   61705   2       36893   36892   46867   0.
CTRIA3   61706   2       46864   46867   36892   0.
CTRIA3   61707   2       36892   36891   46864   0.
CTRIA3   61708   2       46867   46864   46865   0.
CTRIA3   61709   2       46866   46865   46834   0.
CTRIA3   61710   2       36577   46878   46876   0.
CTRIA3   61711   2       46875   46876   46878   0.
CTRIA3   61712   2       46878   46877   46875   0.
CTRIA3   61713   2       46871   46875   46877   0.
CTRIA3   61714   2       46877   46870   46871   0.
CTRIA3   61715   2       46876   46875   36575   0.
CTRIA3   61716   2       46872   36575   46875   0.
CTRIA3   61717   2       46875   46871   46872   0.
CTRIA3   61718   2       36575   46872   36574   0.
CTRIA3   61719   2       36557   46884   36579   0.
CTRIA3   61720   2       46881   36579   46884   0.
CTRIA3   61721   2       46884   46883   46881   0.
CTRIA3   61722   2       46877   46881   46883   0.
CTRIA3   61723   2       46883   46870   46877   0.
CTRIA3   61724   2       36579   46881   36578   0.
CTRIA3   61725   2       46878   36578   46881   0.
CTRIA3   61726   2       46881   46877   46878   0.
CTRIA3   61727   2       36578   46878   36577   0.
CTRIA3   61728   2       46834   46887   46866   0.
CTRIA3   61729   2       46885   46866   46887   0.
CTRIA3   61730   2       46887   46886   46885   0.
CTRIA3   61731   2       46883   46885   46886   0.
CTRIA3   61732   2       46886   46870   46883   0.
CTRIA3   61733   2       46884   46868   46885   0.
CTRIA3   61734   2       46885   46883   46884   0.
CTRIA3   61735   2       46868   46884   36557   0.
CTRIA3   61736   2       46828   46890   46829   0.
CTRIA3   61737   2       46888   46829   46890   0.
CTRIA3   61738   2       46890   46889   46888   0.
CTRIA3   61739   2       46886   46888   46889   0.
CTRIA3   61740   2       46889   46870   46886   0.
CTRIA3   61741   2       46829   46888   46831   0.
CTRIA3   61742   2       46887   46831   46888   0.
CTRIA3   61743   2       46888   46886   46887   0.
CTRIA3   61744   2       46831   46887   46834   0.
CTRIA3   61745   2       46896   46895   46893   0.
CTRIA3   61746   2       46892   46893   46895   0.
CTRIA3   61747   2       46895   46894   46892   0.
CTRIA3   61748   2       46889   46892   46894   0.
CTRIA3   61749   2       46894   46870   46889   0.
CTRIA3   61750   2       46893   46892   46891   0.
CTRIA3   61751   2       46890   46891   46892   0.
CTRIA3   61752   2       46892   46889   46890   0.
CTRIA3   61753   2       46891   46890   46828   0.
CTRIA3   61754   2       36574   46872   36583   0.
CTRIA3   61755   2       46898   36583   46872   0.
CTRIA3   61756   2       46872   46871   46898   0.
CTRIA3   61757   2       46894   46898   46871   0.
CTRIA3   61758   2       46871   46870   46894   0.
CTRIA3   61759   2       46895   46897   46898   0.
CTRIA3   61760   2       46898   46894   46895   0.
CTRIA3   61761   2       46897   46895   46896   0.
CTRIA3   61815   2       36986   46926   36732   0.
CTRIA3   61816   2       46897   46896   46926   0.
CTRIA3   61835   2       36577   46876   36997   0.
CTRIA3   61836   2       36995   36997   46876   0.
CTRIA3   61840   2       46876   36575   36995   0.
CTRIA3   61871   2       46828   46827   46945   0.
CTRIA3   61872   2       46955   46945   46827   0.
CTRIA3   61873   2       46827   46826   46955   0.
CTRIA3   61874   2       46953   46955   46826   0.
CTRIA3   61875   2       46826   46825   46953   0.
CTRIA3   61876   2       46945   46955   46944   0.
CTRIA3   61877   2       46954   46944   46955   0.
CTRIA3   61878   2       46955   46953   46954   0.
CTRIA3   61879   2       46944   46954   46943   0.
CTRIA3   61882   2       36670   46957   36668   0.
CTRIA3   61883   2       46841   36668   46957   0.
CTRIA3   61884   2       46957   46825   46841   0.
CTRIA3   61887   2       36668   46841   36667   0.
CTRIA3   61889   2       46943   46954   46947   0.
CTRIA3   61890   2       46959   46947   46954   0.
CTRIA3   61891   2       46954   46953   46959   0.
CTRIA3   61892   2       46957   46959   46953   0.
CTRIA3   61893   2       46953   46825   46957   0.
CTRIA3   61894   2       36670   46946   46959   0.
CTRIA3   61895   2       46959   46957   36670   0.
CTRIA3   61896   2       46946   36670   36437   0.
CTRIA3   61897   2       46943   46961   46948   0.
CTRIA3   61898   2       46961   11819   11818   0.
CTRIA3   61901   2       36437   36702   46946   0.
CTRIA3   61902   2       46962   46946   36702   0.
CTRIA3   61903   2       36702   11822   46962   0.
CTRIA3   61904   2       11819   46962   11822   0.
CTRIA3   61906   2       46962   11819   46961   0.
CTRIA3   61907   2       46947   46961   46943   0.
CTRIA3   61914   2       11824   11822   36702   0.
CTRIA3   61919   2       46896   46968   46949   0.
CTRIA3   61920   2       46619   46949   46968   0.
CTRIA3   61921   2       46968   46967   46619   0.
CTRIA3   61922   2       46967   46618   46121   0.
CTRIA3   61923   2       46828   46971   46891   0.
CTRIA3   61924   2       46969   46891   46971   0.
CTRIA3   61925   2       46971   46970   46969   0.
CTRIA3   61926   2       46967   46969   46970   0.
CTRIA3   61927   2       46970   46618   46967   0.
CTRIA3   61928   2       46891   46969   46893   0.
CTRIA3   61929   2       46968   46893   46969   0.
CTRIA3   61930   2       46969   46967   46968   0.
CTRIA3   61931   2       46893   46968   46896   0.
CTRIA3   61932   2       46943   46974   46944   0.
CTRIA3   61933   2       46972   46944   46974   0.
CTRIA3   61934   2       46974   46973   46972   0.
CTRIA3   61935   2       46970   46972   46973   0.
CTRIA3   61936   2       46973   46618   46970   0.
CTRIA3   61937   2       46944   46972   46945   0.
CTRIA3   61938   2       46971   46945   46972   0.
CTRIA3   61939   2       46972   46970   46971   0.
CTRIA3   61940   2       46945   46971   46828   0.
CTRIA3   61941   2       46973   46620   46125   0.
CTRIA3   61942   2       46125   46618   46973   0.
CTRIA3   61943   2       46974   46948   46620   0.
CTRIA3   61944   2       46620   46973   46974   0.
CTRIA3   61945   2       46948   46974   46943   0.
CTRIA3   61948   2       36734   36732   46926   0.
CTRIA3   61949   2       46949   46926   46896   0.
CTRIA3   62290   2       36466   47193   46619   0.
CTRIA3   62291   2       47193   46949   46619   0.
CTRIA3   62292   2       47193   36466   36734   0.
CTRIA3   62293   2       46949   47223   46926   0.
CTRIA3   62294   2       47223   36734   46926   0.
CTRIA3   62295   2       36734   47223   47193   0.
CTRIA3   62296   2       47223   46949   47193   0.
CTRIA3   62297   2       36583   47199   36986   0.
CTRIA3   62298   2       46897   47199   46898   0.
CTRIA3   62299   2       47199   36583   46898   0.
CTRIA3   62300   2       46868   47205   46885   0.
CTRIA3   62301   2       47205   46866   46885   0.
CTRIA3   62302   2       47205   46868   46867   0.
CTRIA3   62303   2       46835   47211   46836   0.
CTRIA3   62304   2       47211   46837   46836   0.
CTRIA3   62305   2       46837   47211   46863   0.
CTRIA3   62306   2       46946   47217   46959   0.
CTRIA3   62307   2       47217   46947   46959   0.
CTRIA3   62308   2       47217   46946   46962   0.
CTRIA3   62309   2       10764   47187   11818   0.
CTRIA3   62310   2       46948   47187   46620   0.
CTRIA3   62311   2       47187   10764   46620   0.
CTRIA3   62312   2       46121   46122   46967   0.
CTRIA3   62313   2       46122   46619   46967   0.
CTRIA3   62338   2       46948   47224   47187   0.
CTRIA3   62339   2       47224   11818   47187   0.
CTRIA3   62340   2       11818   47224   46961   0.
CTRIA3   62341   2       47224   46948   46961   0.
CTRIA3   62342   2       46947   47225   46961   0.
CTRIA3   62343   2       47225   46962   46961   0.
CTRIA3   62344   2       46962   47225   47217   0.
CTRIA3   62345   2       47225   46947   47217   0.
CTRIA3   62346   2       46835   47226   47211   0.
CTRIA3   62347   2       47226   46863   47211   0.
CTRIA3   62348   2       46863   47226   46865   0.
CTRIA3   62349   2       47226   46835   46865   0.
CTRIA3   62350   2       46866   47227   46865   0.
CTRIA3   62351   2       47227   46867   46865   0.
CTRIA3   62352   2       46867   47227   47205   0.
CTRIA3   62353   2       47227   46866   47205   0.
CTRIA3   62354   2       46897   47228   47199   0.
CTRIA3   62355   2       47228   36986   47199   0.
CTRIA3   62356   2       36986   47228   46926   0.
CTRIA3   62357   2       47228   46897   46926   0.
CTRIA3   62793   2       11107   47536   11106   0.
CTRIA3   62794   2       47533   11106   47536   0.
CTRIA3   62795   2       47536   47535   47533   0.
CTRIA3   62796   2       47529   47533   47535   0.
CTRIA3   62797   2       11106   47533   11105   0.
CTRIA3   62798   2       47530   11105   47533   0.
CTRIA3   62799   2       47533   47529   47530   0.
CTRIA3   62800   2       11105   47530   11104   0.
CTRIA3   62801   2       47538   47536   11107   0.
CTRIA3   62802   2       43993   47540   43994   0.
CTRIA3   62803   2       11104   47530   47543   0.
CTRIA3   62804   2       47542   47543   47530   0.
CTRIA3   62805   2       47530   47529   47542   0.
CTRIA3   62806   2       47539   47542   47529   0.
CTRIA3   62807   2       47543   47542   11110   0.
CTRIA3   62808   2       47540   11110   47542   0.
CTRIA3   62809   2       47542   47539   47540   0.
CTRIA3   62810   2       11110   47540   43993   0.
CTRIA3   62813   2       11107   12545   47538   0.
CTRIA3   62890   2       11110   12601   47543   0.
CTRIA3   62891   2       12600   47543   12601   0.
CTRIA3   62893   2       47543   12600   11104   0.
CTRIA3   63450   2       47535   48032   47529   0.
CTRIA3   63451   2       47536   47538   48033   0.
CTRIA3   63452   2       48034   43994   47540   0.
CTRIA3   63453   2       47540   47539   48034   0.
CTRIA3   63454   2       47529   48032   47539   0.
CTRIA3   63456   2       48036   47538   12545   0.
CTRIA3   63457   2       12545   12544   48036   0.
CTRIA3   63858   2       48248   48247   48245   0.
CTRIA3   63859   2       48244   48245   48247   0.
CTRIA3   63860   2       48247   48246   48244   0.
CTRIA3   63861   2       48240   48244   48246   0.
CTRIA3   63862   2       48246   48239   48240   0.
CTRIA3   63863   2       48245   48244   48243   0.
CTRIA3   63864   2       48241   48243   48244   0.
CTRIA3   63865   2       48244   48240   48241   0.
CTRIA3   63866   2       48243   48241   48242   0.
CTRIA3   63869   2       48250   44121   44578   0.
CTRIA3   63870   2       44578   48252   48250   0.
CTRIA3   63871   2       48246   48250   48252   0.
CTRIA3   63872   2       48252   48239   48246   0.
CTRIA3   63873   2       48247   48249   48250   0.
CTRIA3   63874   2       48250   48246   48247   0.
CTRIA3   63875   2       48249   48247   48248   0.
CTRIA3   63878   2       44319   48255   44579   0.
CTRIA3   63879   2       48252   44579   48255   0.
CTRIA3   63880   2       48255   48239   48252   0.
CTRIA3   63883   2       44579   48252   44578   0.
CTRIA3   63889   2       44124   44583   44123   0.
CTRIA3   63890   2       48259   44123   44583   0.
CTRIA3   63891   2       44583   44581   48259   0.
CTRIA3   63892   2       44123   48259   48260   0.
CTRIA3   63914   2       48248   48279   48249   0.
CTRIA3   63915   2       48279   44596   44595   0.
CTRIA3   63921   2       48260   48259   48282   0.
CTRIA3   63922   2       48281   48282   48259   0.
CTRIA3   63923   2       48259   44581   48281   0.
CTRIA3   63924   2       44596   48281   44581   0.
CTRIA3   63926   2       48281   44596   48279   0.
CTRIA3   63927   2       48280   48279   48248   0.
CTRIA3   63929   2       48289   44144   44631   0.
CTRIA3   63930   2       44631   48291   48289   0.
CTRIA3   63931   2       48285   48289   48291   0.
CTRIA3   63932   2       48291   48284   48285   0.
CTRIA3   63933   2       44144   48289   44143   0.
CTRIA3   63934   2       48286   44143   48289   0.
CTRIA3   63935   2       48289   48285   48286   0.
CTRIA3   63936   2       44143   48286   48287   0.
CTRIA3   63937   2       48260   48298   44147   0.
CTRIA3   63938   2       48295   44147   48298   0.
CTRIA3   63939   2       48298   48297   48295   0.
CTRIA3   63940   2       48291   48295   48297   0.
CTRIA3   63941   2       48297   48284   48291   0.
CTRIA3   63942   2       44147   48295   44146   0.
CTRIA3   63943   2       44631   44146   48295   0.
CTRIA3   63944   2       48295   48291   44631   0.
CTRIA3   63946   2       48248   48301   48280   0.
CTRIA3   63947   2       48299   48280   48301   0.
CTRIA3   63948   2       48301   48300   48299   0.
CTRIA3   63949   2       48297   48299   48300   0.
CTRIA3   63950   2       48300   48284   48297   0.
CTRIA3   63951   2       48298   48282   48299   0.
CTRIA3   63952   2       48299   48297   48298   0.
CTRIA3   63953   2       48282   48298   48260   0.
CTRIA3   63954   2       48242   48304   48243   0.
CTRIA3   63955   2       48302   48243   48304   0.
CTRIA3   63956   2       48304   48303   48302   0.
CTRIA3   63957   2       48300   48302   48303   0.
CTRIA3   63958   2       48303   48284   48300   0.
CTRIA3   63959   2       48243   48302   48245   0.
CTRIA3   63960   2       48301   48245   48302   0.
CTRIA3   63961   2       48302   48300   48301   0.
CTRIA3   63962   2       48245   48301   48248   0.
CTRIA3   63963   2       48310   48309   48307   0.
CTRIA3   63964   2       48306   48307   48309   0.
CTRIA3   63965   2       48309   48308   48306   0.
CTRIA3   63966   2       48303   48306   48308   0.
CTRIA3   63967   2       48308   48284   48303   0.
CTRIA3   63968   2       48307   48306   48305   0.
CTRIA3   63969   2       48304   48305   48306   0.
CTRIA3   63970   2       48306   48303   48304   0.
CTRIA3   63971   2       48305   48304   48242   0.
CTRIA3   63972   2       48287   48286   48313   0.
CTRIA3   63973   2       48312   48313   48286   0.
CTRIA3   63974   2       48286   48285   48312   0.
CTRIA3   63975   2       48308   48312   48285   0.
CTRIA3   63976   2       48285   48284   48308   0.
CTRIA3   63977   2       48309   48311   48312   0.
CTRIA3   63978   2       48312   48308   48309   0.
CTRIA3   63979   2       48311   48309   48310   0.
CTRIA3   63998   2       48260   44659   44123   0.
CTRIA3   64015   2       44147   44659   48260   0.
CTRIA3   64028   2       48287   48313   48343   0.
CTRIA3   64029   2       48341   48343   48313   0.
CTRIA3   64030   2       48343   48341   48342   0.
CTRIA3   64031   2       48339   48342   48341   0.
CTRIA3   64032   2       48342   48339   12538   0.
CTRIA3   64033   2       48341   48340   48339   0.
CTRIA3   64034   2       48311   48310   48340   0.
CTRIA3   64036   2       48344   13019   11346   0.
CTRIA3   64037   2       13019   48344   13018   0.
CTRIA3   64038   2       48342   13018   48344   0.
CTRIA3   64039   2       13018   48342   12538   0.
CTRIA3   64040   2       11346   11347   48344   0.
CTRIA3   64041   2       48343   48344   11347   0.
CTRIA3   64042   2       48344   48343   48342   0.
CTRIA3   64043   2       11347   48287   48343   0.
CTRIA3   64044   2       48287   11347   44696   0.
CTRIA3   64061   2       44143   48287   44696   0.
CTRIA3   64081   2       43976   44299   43975   0.
CTRIA3   64089   2       48242   48241   48359   0.
CTRIA3   64090   2       48369   48359   48241   0.
CTRIA3   64091   2       48241   48240   48369   0.
CTRIA3   64092   2       48367   48369   48240   0.
CTRIA3   64093   2       48240   48239   48367   0.
CTRIA3   64094   2       48359   48369   48358   0.
CTRIA3   64095   2       48368   48358   48369   0.
CTRIA3   64096   2       48369   48367   48368   0.
CTRIA3   64097   2       48358   48368   48357   0.
CTRIA3   64098   2       43974   48372   43975   0.
CTRIA3   64099   2       48370   43975   48372   0.
CTRIA3   64100   2       48372   48371   48370   0.
CTRIA3   64101   2       48255   48370   48371   0.
CTRIA3   64102   2       48371   48239   48255   0.
CTRIA3   64103   2       43975   48370   43976   0.
CTRIA3   64104   2       44319   43976   48370   0.
CTRIA3   64105   2       48370   48255   44319   0.
CTRIA3   64107   2       48357   48368   48361   0.
CTRIA3   64108   2       48373   48361   48368   0.
CTRIA3   64109   2       48368   48367   48373   0.
CTRIA3   64110   2       48371   48373   48367   0.
CTRIA3   64111   2       48367   48239   48371   0.
CTRIA3   64112   2       48372   43983   48373   0.
CTRIA3   64113   2       48373   48371   48372   0.
CTRIA3   64114   2       43983   48372   43974   0.
CTRIA3   64115   2       48357   48375   48362   0.
CTRIA3   64116   2       48375   44336   44335   0.
CTRIA3   64124   2       44338   44336   48375   0.
CTRIA3   64125   2       48361   48375   48357   0.
CTRIA3   64137   2       48310   48382   48363   0.
CTRIA3   64138   2       48033   48363   48382   0.
CTRIA3   64139   2       48382   48381   48033   0.
CTRIA3   64140   2       48381   48032   47535   0.
CTRIA3   64141   2       48242   48385   48305   0.
CTRIA3   64142   2       48383   48305   48385   0.
CTRIA3   64143   2       48385   48384   48383   0.
CTRIA3   64144   2       48381   48383   48384   0.
CTRIA3   64145   2       48384   48032   48381   0.
CTRIA3   64146   2       48305   48383   48307   0.
CTRIA3   64147   2       48382   48307   48383   0.
CTRIA3   64148   2       48383   48381   48382   0.
CTRIA3   64149   2       48307   48382   48310   0.
CTRIA3   64150   2       48357   48388   48358   0.
CTRIA3   64151   2       48386   48358   48388   0.
CTRIA3   64152   2       48388   48387   48386   0.
CTRIA3   64153   2       48384   48386   48387   0.
CTRIA3   64154   2       48387   48032   48384   0.
CTRIA3   64155   2       48358   48386   48359   0.
CTRIA3   64156   2       48385   48359   48386   0.
CTRIA3   64157   2       48386   48384   48385   0.
CTRIA3   64158   2       48359   48385   48242   0.
CTRIA3   64159   2       48387   48034   47539   0.
CTRIA3   64160   2       47539   48032   48387   0.
CTRIA3   64161   2       48388   48362   48034   0.
CTRIA3   64162   2       48034   48387   48388   0.
CTRIA3   64163   2       48362   48388   48357   0.
CTRIA3   64164   2       48339   48036   12544   0.
CTRIA3   64165   2       12544   12538   48339   0.
CTRIA3   64166   2       48036   48339   48340   0.
CTRIA3   64167   2       48363   48340   48310   0.
CTRIA3   64508   2       47538   48607   48033   0.
CTRIA3   64509   2       48607   48363   48033   0.
CTRIA3   64510   2       48607   47538   48036   0.
CTRIA3   64511   2       48363   48637   48340   0.
CTRIA3   64512   2       48637   48036   48340   0.
CTRIA3   64513   2       48036   48637   48607   0.
CTRIA3   64514   2       48637   48363   48607   0.
CTRIA3   64515   2       48313   48613   48341   0.
CTRIA3   64516   2       48311   48613   48312   0.
CTRIA3   64517   2       48613   48313   48312   0.
CTRIA3   64518   2       48282   48619   48299   0.
CTRIA3   64519   2       48619   48280   48299   0.
CTRIA3   64520   2       48619   48282   48281   0.
CTRIA3   64521   2       48249   48625   48250   0.
CTRIA3   64522   2       48625   44121   48250   0.
CTRIA3   64523   2       44121   48625   44595   0.
CTRIA3   64524   2       43983   48631   48373   0.
CTRIA3   64525   2       48631   48361   48373   0.
CTRIA3   64526   2       48631   43983   44338   0.
CTRIA3   64527   2       43994   48601   44335   0.
CTRIA3   64528   2       48362   48601   48034   0.
CTRIA3   64529   2       48601   43994   48034   0.
CTRIA3   64530   2       47535   47536   48381   0.
CTRIA3   64531   2       47536   48033   48381   0.
CTRIA3   64556   2       48362   48638   48601   0.
CTRIA3   64557   2       48638   44335   48601   0.
CTRIA3   64558   2       44335   48638   48375   0.
CTRIA3   64559   2       48638   48362   48375   0.
CTRIA3   64560   2       48361   48639   48375   0.
CTRIA3   64561   2       48639   44338   48375   0.
CTRIA3   64562   2       44338   48639   48631   0.
CTRIA3   64563   2       48639   48361   48631   0.
CTRIA3   64564   2       48249   48640   48625   0.
CTRIA3   64565   2       48640   44595   48625   0.
CTRIA3   64566   2       44595   48640   48279   0.
CTRIA3   64567   2       48640   48249   48279   0.
CTRIA3   64568   2       48280   48641   48279   0.
CTRIA3   64569   2       48641   48281   48279   0.
CTRIA3   64570   2       48281   48641   48619   0.
CTRIA3   64571   2       48641   48280   48619   0.
CTRIA3   64572   2       48311   48642   48613   0.
CTRIA3   64573   2       48642   48341   48613   0.
CTRIA3   64574   2       48341   48642   48340   0.
CTRIA3   64575   2       48642   48311   48340   0.
CTRIA3   66826   2       50420   11429   10575   30.1877
CTRIA3   66827   2       11427   11429   50421  -8.971-7
CTRIA3   66830   2       50421   11418   11427   30.2205
CTRIA3   66831   2       11863   11418   50423   4.148-7
CTRIA3   66834   2       50423   11862   11863   30.2456
CTRIA3   66835   2       10785   11862   50425   1.454-7
CTRIA3   66838   2       50425   11881   10785   30.2683
CTRIA3   66839   2       10575   11477   50420   6.59-7
CTRIA3   66841   2       11881   50428   11883  -2.311-5
CTRIA3   66844   2       50428   11881   50425  -2.458-5
CTRIA3   66846   2       11476   50430   11477  -29.8977
CTRIA3   66847   2       50420   11477   50430   30.1778
CTRIA3   66848   2       10786   11868   50431  -9.632-7
CTRIA3   66850   2       11884   50431   11868  -29.661
CTRIA3   66851   2       10826   11953   50432  -7.449-7
CTRIA3   66852   2       10826   50432   11999   1.111-6
CTRIA3   66853   2       50432   50433   11999  -1.099-6
CTRIA3   66855   2       50435   11505   11488  -6.988-7
CTRIA3   66856   2       11505   50435   11504  -4.611-8
CTRIA3   66914   2       50476   12587   11089   3.829-5
CTRIA3   66915   2       11127   12587   50476   2.798-9
CTRIA3   66916   2       11123   50477   11122   1.577-5
CTRIA3   66918   2       50478   12117   10907   28.8832
CTRIA3   66919   2       11162   12641   50479   7.12-8
CTRIA3   66920   2       11162   50479   12687   6.658-6
CTRIA3   66921   2       50479   50480   12687  -7.124-6
CTRIA3   66922   2       10907   12165   50478   6.39-9
CTRIA3   66923   2       12199   12197   50483  -2.638-7
CTRIA3   66924   2       12199   50483   12198  -43.1386
CTRIA3   66925   2       12687   12198   50483  -3.032-8
CTRIA3   66926   2       12687   50483   12197  -34.6375
$ Elements and Element Properties for region : pshellr.3
PSHELL   3       1       .045    1               1
$ Pset: "pshellr.3" will be imported as: "pshell.3"
CQUAD4   20001   3       10036   23391   23390   10038   0.
CQUAD4   20002   3       10035   23392   23391   10036   0.
CQUAD4   20003   3       10054   23395   23387   10010   0.
CQUAD4   20004   3       10052   23396   23395   10054   0.
CQUAD4   20005   3       10051   23397   23396   10052   0.
CQUAD4   20006   3       10022   23388   23389   10020   0.
CQUAD4   20007   3       10010   23387   23388   10022   0.
CQUAD4   20011   3       10011   23386   23387   10010   0.
CQUAD4   20012   3       10013   23385   23386   10011   0.
CQUAD4   20013   3       10016   20001   23385   10013   0.
CQUAD4   20014   3       10129   23416   23400   10045   0.
CQUAD4   20015   3       10127   23417   23416   10129   0.
CQUAD4   20016   3       10126   23418   23417   10127   0.
CQUAD4   20017   3       10140   23424   20006   10143   0.
CQUAD4   20018   3       10138   23425   23424   10140   0.
CQUAD4   20019   3       10029   20003   23425   10138   0.
CQUAD4   20020   3       10030   23394   20003   10029   0.
CQUAD4   20021   3       10032   23393   23394   10030   0.
CQUAD4   20022   3       10035   23392   23393   10032   0.
CQUAD4   20023   3       10066   23402   23392   10035   0.
CQUAD4   20024   3       10068   23401   23402   10066   0.
CQUAD4   20025   3       10045   23400   23401   10068   0.
CQUAD4   20026   3       10159   23426   23408   10072   0.
CQUAD4   20027   3       10157   23427   23426   10159   0.
CQUAD4   20028   3       10156   23428   23427   10157   0.
CQUAD4   20029   3       10046   23399   23400   10045   0.
CQUAD4   20030   3       10048   23398   23399   10046   0.
CQUAD4   20031   3       10051   23397   23398   10048   0.
CQUAD4   20032   3       10093   23410   23397   10051   0.
CQUAD4   20033   3       10095   23409   23410   10093   0.
CQUAD4   20034   3       10072   23408   23409   10095   0.
CQUAD4   20038   3       10073   23407   23408   10072   0.
CQUAD4   20050   3       10254   23452   23421   10120   0.
CQUAD4   20051   3       10252   23453   23452   10254   0.
CQUAD4   20052   3       10251   23454   23453   10252   0.
CQUAD4   20053   3       10144   23423   20006   10143   0.
CQUAD4   20054   3       10146   23422   23423   10144   0.
CQUAD4   20055   3       10120   23421   23422   10146   0.
CQUAD4   20056   3       10272   23457   23431   10150   0.
CQUAD4   20057   3       10270   23458   23457   10272   0.
CQUAD4   20058   3       10269   23459   23458   10270   0.
CQUAD4   20059   3       10121   23420   23421   10120   0.
CQUAD4   20060   3       10123   23419   23420   10121   0.
CQUAD4   20061   3       10126   23418   23419   10123   0.
CQUAD4   20062   3       10171   23433   23418   10126   0.
CQUAD4   20063   3       10173   23432   23433   10171   0.
CQUAD4   20064   3       10150   23431   23432   10173   0.
CQUAD4   20065   3       10299   23465   23439   10177   0.
CQUAD4   20066   3       10297   23466   23465   10299   0.
CQUAD4   20067   3       10296   23467   23466   10297   0.
CQUAD4   20068   3       10151   23430   23431   10150   0.
CQUAD4   20069   3       10153   23429   23430   10151   0.
CQUAD4   20070   3       10156   23428   23429   10153   0.
CQUAD4   20071   3       10198   23441   23428   10156   0.
CQUAD4   20072   3       10200   23440   23441   10198   0.
CQUAD4   20073   3       10177   23439   23440   10200   0.
CQUAD4   20074   3       10326   23473   23447   10204   0.
CQUAD4   20075   3       10324   23474   23473   10326   0.
CQUAD4   20076   3       10323   23475   23474   10324   0.
CQUAD4   20077   3       10178   23438   23439   10177   0.
CQUAD4   20078   3       10180   23437   23438   10178   0.
CQUAD4   20079   3       10183   23436   23437   10180   0.
CQUAD4   20080   3       10225   23449   23436   10183   0.
CQUAD4   20081   3       10227   23448   23449   10225   0.
CQUAD4   20082   3       10204   23447   23448   10227   0.
CQUAD4   20083   3       10205   23446   23447   10204   0.
CQUAD4   20084   3       10207   23445   23446   10205   0.
CQUAD4   20085   3       10210   23444   23445   10207   0.
CQUAD4   20086   3       10239   23451   23444   10210   0.
CQUAD4   20087   3       10241   23450   23451   10239   0.
CQUAD4   20088   3       10372   23482   23462   10263   0.
CQUAD4   20089   3       10370   23483   23482   10372   0.
CQUAD4   20090   3       10369   23484   23483   10370   0.
CQUAD4   20091   3       10383   23490   20008   10386   0.
CQUAD4   20092   3       10381   23491   23490   10383   0.
CQUAD4   20093   3       10245   20007   23491   10381   0.
CQUAD4   20094   3       10246   23456   20007   10245   0.
CQUAD4   20095   3       10248   23455   23456   10246   0.
CQUAD4   20096   3       10251   23454   23455   10248   0.
CQUAD4   20097   3       10284   23464   23454   10251   0.
CQUAD4   20098   3       10286   23463   23464   10284   0.
CQUAD4   20099   3       10263   23462   23463   10286   0.
CQUAD4   20100   3       10402   23492   23470   10290   0.
CQUAD4   20101   3       10400   23493   23492   10402   0.
CQUAD4   20102   3       10399   23494   23493   10400   0.
CQUAD4   20103   3       10264   23461   23462   10263   0.
CQUAD4   20104   3       10266   23460   23461   10264   0.
CQUAD4   20105   3       10269   23459   23460   10266   0.
CQUAD4   20106   3       10311   23472   23459   10269   0.
CQUAD4   20107   3       10313   23471   23472   10311   0.
CQUAD4   20108   3       10290   23470   23471   10313   0.
CQUAD4   20109   3       10428   23500   23478   10317   0.
CQUAD4   20110   3       10426   23501   23500   10428   0.
CQUAD4   20111   3       10291   23469   23470   10290   0.
CQUAD4   20112   3       10293   23468   23469   10291   0.
CQUAD4   20113   3       10296   23467   23468   10293   0.
CQUAD4   20114   3       10338   23480   23467   10296   0.
CQUAD4   20115   3       10340   23479   23480   10338   0.
CQUAD4   20116   3       10317   23478   23479   10340   0.
CQUAD4   20117   3       10318   23477   23478   10317   0.
CQUAD4   20118   3       10320   23476   23477   10318   0.
CQUAD4   20119   3       10323   23475   23476   10320   0.
CQUAD4   20120   3       10357   23481   23475   10323   0.
CQUAD4   20121   3       10454   23504   23487   10363   0.
CQUAD4   20122   3       10453   23505   23504   10454   0.
CQUAD4   20123   3       10387   23489   20008   10386   0.
CQUAD4   20124   3       10389   23488   23489   10387   0.
CQUAD4   20125   3       10363   23487   23488   10389   0.
CQUAD4   20126   3       10455   23506   23497   10393   0.
CQUAD4   20127   3       10364   23486   23487   10363   0.
CQUAD4   20128   3       10366   23485   23486   10364   0.
CQUAD4   20129   3       10369   23484   23485   10366   0.
CQUAD4   20130   3       10414   23499   23484   10369   0.
CQUAD4   20131   3       10416   23498   23499   10414   0.
CQUAD4   20132   3       10393   23497   23498   10416   0.
CQUAD4   20133   3       10394   23496   23497   10393   0.
CQUAD4   20134   3       10396   23495   23496   10394   0.
CQUAD4   20135   3       10399   23494   23495   10396   0.
CQUAD4   20136   3       10440   23503   23494   10399   0.
CQUAD4   20137   3       10442   23502   23503   10440   0.
CQUAD4   20138   3       23391   23513   23512   23390   0.
CQUAD4   20139   3       23392   23514   23513   23391   0.
CQUAD4   20140   3       23395   23517   23509   23387   0.
CQUAD4   20141   3       23396   23518   23517   23395   0.
CQUAD4   20142   3       23397   23519   23518   23396   0.
CQUAD4   20143   3       23388   23510   23511   23389   0.
CQUAD4   20144   3       23387   23509   23510   23388   0.
CQUAD4   20148   3       23386   23508   23509   23387   0.
CQUAD4   20149   3       23385   23507   23508   23386   0.
CQUAD4   20150   3       20001   20009   23507   23385   0.
CQUAD4   20151   3       23416   23538   23522   23400   0.
CQUAD4   20152   3       23417   23539   23538   23416   0.
CQUAD4   20153   3       23418   23540   23539   23417   0.
CQUAD4   20154   3       23424   23546   20014   20006   0.
CQUAD4   20155   3       23425   23547   23546   23424   0.
CQUAD4   20156   3       20003   20011   23547   23425   0.
CQUAD4   20157   3       23394   23516   20011   20003   0.
CQUAD4   20158   3       23393   23515   23516   23394   0.
CQUAD4   20159   3       23392   23514   23515   23393   0.
CQUAD4   20160   3       23402   23524   23514   23392   0.
CQUAD4   20161   3       23401   23523   23524   23402   0.
CQUAD4   20162   3       23400   23522   23523   23401   0.
CQUAD4   20163   3       23426   23548   23530   23408   0.
CQUAD4   20164   3       23427   23549   23548   23426   0.
CQUAD4   20165   3       23428   23550   23549   23427   0.
CQUAD4   20166   3       23399   23521   23522   23400   0.
CQUAD4   20167   3       23398   23520   23521   23399   0.
CQUAD4   20168   3       23397   23519   23520   23398   0.
CQUAD4   20169   3       23410   23532   23519   23397   0.
CQUAD4   20170   3       23409   23531   23532   23410   0.
CQUAD4   20171   3       23408   23530   23531   23409   0.
CQUAD4   20175   3       23407   23529   23530   23408   0.
CQUAD4   20187   3       23452   23574   23543   23421   0.
CQUAD4   20188   3       23453   23575   23574   23452   0.
CQUAD4   20189   3       23454   23576   23575   23453   0.
CQUAD4   20190   3       23423   23545   20014   20006   0.
CQUAD4   20191   3       23422   23544   23545   23423   0.
CQUAD4   20192   3       23421   23543   23544   23422   0.
CQUAD4   20193   3       23457   23579   23553   23431   0.
CQUAD4   20194   3       23458   23580   23579   23457   0.
CQUAD4   20195   3       23459   23581   23580   23458   0.
CQUAD4   20196   3       23420   23542   23543   23421   0.
CQUAD4   20197   3       23419   23541   23542   23420   0.
CQUAD4   20198   3       23418   23540   23541   23419   0.
CQUAD4   20199   3       23433   23555   23540   23418   0.
CQUAD4   20200   3       23432   23554   23555   23433   0.
CQUAD4   20201   3       23431   23553   23554   23432   0.
CQUAD4   20202   3       23465   23587   23561   23439   0.
CQUAD4   20203   3       23466   23588   23587   23465   0.
CQUAD4   20204   3       23467   23589   23588   23466   0.
CQUAD4   20205   3       23430   23552   23553   23431   0.
CQUAD4   20206   3       23429   23551   23552   23430   0.
CQUAD4   20207   3       23428   23550   23551   23429   0.
CQUAD4   20208   3       23441   23563   23550   23428   0.
CQUAD4   20209   3       23440   23562   23563   23441   0.
CQUAD4   20210   3       23439   23561   23562   23440   0.
CQUAD4   20211   3       23473   23595   23569   23447   0.
CQUAD4   20212   3       23474   23596   23595   23473   0.
CQUAD4   20213   3       23475   23597   23596   23474   0.
CQUAD4   20214   3       23438   23560   23561   23439   0.
CQUAD4   20215   3       23437   23559   23560   23438   0.
CQUAD4   20216   3       23436   23558   23559   23437   0.
CQUAD4   20217   3       23449   23571   23558   23436   0.
CQUAD4   20218   3       23448   23570   23571   23449   0.
CQUAD4   20219   3       23447   23569   23570   23448   0.
CQUAD4   20220   3       23446   23568   23569   23447   0.
CQUAD4   20221   3       23445   23567   23568   23446   0.
CQUAD4   20222   3       23444   23566   23567   23445   0.
CQUAD4   20223   3       23451   23573   23566   23444   0.
CQUAD4   20224   3       23450   23572   23573   23451   0.
CQUAD4   20225   3       23482   23604   23584   23462   0.
CQUAD4   20226   3       23483   23605   23604   23482   0.
CQUAD4   20227   3       23484   23606   23605   23483   0.
CQUAD4   20228   3       23490   23612   20016   20008   0.
CQUAD4   20229   3       23491   23613   23612   23490   0.
CQUAD4   20230   3       20007   20015   23613   23491   0.
CQUAD4   20231   3       23456   23578   20015   20007   0.
CQUAD4   20232   3       23455   23577   23578   23456   0.
CQUAD4   20233   3       23454   23576   23577   23455   0.
CQUAD4   20234   3       23464   23586   23576   23454   0.
CQUAD4   20235   3       23463   23585   23586   23464   0.
CQUAD4   20236   3       23462   23584   23585   23463   0.
CQUAD4   20237   3       23492   23614   23592   23470   0.
CQUAD4   20238   3       23493   23615   23614   23492   0.
CQUAD4   20239   3       23494   23616   23615   23493   0.
CQUAD4   20240   3       23461   23583   23584   23462   0.
CQUAD4   20241   3       23460   23582   23583   23461   0.
CQUAD4   20242   3       23459   23581   23582   23460   0.
CQUAD4   20243   3       23472   23594   23581   23459   0.
CQUAD4   20244   3       23471   23593   23594   23472   0.
CQUAD4   20245   3       23470   23592   23593   23471   0.
CQUAD4   20246   3       23500   23622   23600   23478   0.
CQUAD4   20247   3       23501   23623   23622   23500   0.
CQUAD4   20248   3       23469   23591   23592   23470   0.
CQUAD4   20249   3       23468   23590   23591   23469   0.
CQUAD4   20250   3       23467   23589   23590   23468   0.
CQUAD4   20251   3       23480   23602   23589   23467   0.
CQUAD4   20252   3       23479   23601   23602   23480   0.
CQUAD4   20253   3       23478   23600   23601   23479   0.
CQUAD4   20254   3       23477   23599   23600   23478   0.
CQUAD4   20255   3       23476   23598   23599   23477   0.
CQUAD4   20256   3       23475   23597   23598   23476   0.
CQUAD4   20257   3       23481   23603   23597   23475   0.
CQUAD4   20258   3       23504   23626   23609   23487   0.
CQUAD4   20259   3       23505   23627   23626   23504   0.
CQUAD4   20260   3       23489   23611   20016   20008   0.
CQUAD4   20261   3       23488   23610   23611   23489   0.
CQUAD4   20262   3       23487   23609   23610   23488   0.
CQUAD4   20263   3       23506   23628   23619   23497   0.
CQUAD4   20264   3       23486   23608   23609   23487   0.
CQUAD4   20265   3       23485   23607   23608   23486   0.
CQUAD4   20266   3       23484   23606   23607   23485   0.
CQUAD4   20267   3       23499   23621   23606   23484   0.
CQUAD4   20268   3       23498   23620   23621   23499   0.
CQUAD4   20269   3       23497   23619   23620   23498   0.
CQUAD4   20270   3       23496   23618   23619   23497   0.
CQUAD4   20271   3       23495   23617   23618   23496   0.
CQUAD4   20272   3       23494   23616   23617   23495   0.
CQUAD4   20273   3       23503   23625   23616   23494   0.
CQUAD4   20274   3       23502   23624   23625   23503   0.
CQUAD4   20275   3       23513   23635   23634   23512   0.
CQUAD4   20276   3       23514   23636   23635   23513   0.
CQUAD4   20277   3       23517   23639   23631   23509   0.
CQUAD4   20278   3       23518   23640   23639   23517   0.
CQUAD4   20279   3       23519   23641   23640   23518   0.
CQUAD4   20280   3       23510   23632   23633   23511   0.
CQUAD4   20281   3       23509   23631   23632   23510   0.
CQUAD4   20285   3       23508   23630   23631   23509   0.
CQUAD4   20286   3       23507   23629   23630   23508   0.
CQUAD4   20287   3       20009   20017   23629   23507   0.
CQUAD4   20288   3       23538   23660   23644   23522   0.
CQUAD4   20289   3       23539   23661   23660   23538   0.
CQUAD4   20290   3       23540   23662   23661   23539   0.
CQUAD4   20291   3       23546   23668   20022   20014   0.
CQUAD4   20292   3       23547   23669   23668   23546   0.
CQUAD4   20293   3       20011   20019   23669   23547   0.
CQUAD4   20294   3       23516   23638   20019   20011   0.
CQUAD4   20295   3       23515   23637   23638   23516   0.
CQUAD4   20296   3       23514   23636   23637   23515   0.
CQUAD4   20297   3       23524   23646   23636   23514   0.
CQUAD4   20298   3       23523   23645   23646   23524   0.
CQUAD4   20299   3       23522   23644   23645   23523   0.
CQUAD4   20300   3       23548   23670   23652   23530   0.
CQUAD4   20301   3       23549   23671   23670   23548   0.
CQUAD4   20302   3       23550   23672   23671   23549   0.
CQUAD4   20303   3       23521   23643   23644   23522   0.
CQUAD4   20304   3       23520   23642   23643   23521   0.
CQUAD4   20305   3       23519   23641   23642   23520   0.
CQUAD4   20306   3       23532   23654   23641   23519   0.
CQUAD4   20307   3       23531   23653   23654   23532   0.
CQUAD4   20308   3       23530   23652   23653   23531   0.
CQUAD4   20312   3       23529   23651   23652   23530   0.
CQUAD4   20324   3       23574   23696   23665   23543   0.
CQUAD4   20325   3       23575   23697   23696   23574   0.
CQUAD4   20326   3       23576   23698   23697   23575   0.
CQUAD4   20327   3       23545   23667   20022   20014   0.
CQUAD4   20328   3       23544   23666   23667   23545   0.
CQUAD4   20329   3       23543   23665   23666   23544   0.
CQUAD4   20330   3       23579   23701   23675   23553   0.
CQUAD4   20331   3       23580   23702   23701   23579   0.
CQUAD4   20332   3       23581   23703   23702   23580   0.
CQUAD4   20333   3       23542   23664   23665   23543   0.
CQUAD4   20334   3       23541   23663   23664   23542   0.
CQUAD4   20335   3       23540   23662   23663   23541   0.
CQUAD4   20336   3       23555   23677   23662   23540   0.
CQUAD4   20337   3       23554   23676   23677   23555   0.
CQUAD4   20338   3       23553   23675   23676   23554   0.
CQUAD4   20339   3       23587   23709   23683   23561   0.
CQUAD4   20340   3       23588   23710   23709   23587   0.
CQUAD4   20341   3       23589   23711   23710   23588   0.
CQUAD4   20342   3       23552   23674   23675   23553   0.
CQUAD4   20343   3       23551   23673   23674   23552   0.
CQUAD4   20344   3       23550   23672   23673   23551   0.
CQUAD4   20345   3       23563   23685   23672   23550   0.
CQUAD4   20346   3       23562   23684   23685   23563   0.
CQUAD4   20347   3       23561   23683   23684   23562   0.
CQUAD4   20348   3       23595   23717   23691   23569   0.
CQUAD4   20349   3       23596   23718   23717   23595   0.
CQUAD4   20350   3       23597   23719   23718   23596   0.
CQUAD4   20351   3       23560   23682   23683   23561   0.
CQUAD4   20352   3       23559   23681   23682   23560   0.
CQUAD4   20353   3       23558   23680   23681   23559   0.
CQUAD4   20354   3       23571   23693   23680   23558   0.
CQUAD4   20355   3       23570   23692   23693   23571   0.
CQUAD4   20356   3       23569   23691   23692   23570   0.
CQUAD4   20357   3       23568   23690   23691   23569   0.
CQUAD4   20358   3       23567   23689   23690   23568   0.
CQUAD4   20359   3       23566   23688   23689   23567   0.
CQUAD4   20360   3       23573   23695   23688   23566   0.
CQUAD4   20361   3       23572   23694   23695   23573   0.
CQUAD4   20362   3       23604   23726   23706   23584   0.
CQUAD4   20363   3       23605   23727   23726   23604   0.
CQUAD4   20364   3       23606   23728   23727   23605   0.
CQUAD4   20365   3       23612   23734   20024   20016   0.
CQUAD4   20366   3       23613   23735   23734   23612   0.
CQUAD4   20367   3       20015   20023   23735   23613   0.
CQUAD4   20368   3       23578   23700   20023   20015   0.
CQUAD4   20369   3       23577   23699   23700   23578   0.
CQUAD4   20370   3       23576   23698   23699   23577   0.
CQUAD4   20371   3       23586   23708   23698   23576   0.
CQUAD4   20372   3       23585   23707   23708   23586   0.
CQUAD4   20373   3       23584   23706   23707   23585   0.
CQUAD4   20374   3       23614   23736   23714   23592   0.
CQUAD4   20375   3       23615   23737   23736   23614   0.
CQUAD4   20376   3       23616   23738   23737   23615   0.
CQUAD4   20377   3       23583   23705   23706   23584   0.
CQUAD4   20378   3       23582   23704   23705   23583   0.
CQUAD4   20379   3       23581   23703   23704   23582   0.
CQUAD4   20380   3       23594   23716   23703   23581   0.
CQUAD4   20381   3       23593   23715   23716   23594   0.
CQUAD4   20382   3       23592   23714   23715   23593   0.
CQUAD4   20383   3       23622   23744   23722   23600   0.
CQUAD4   20384   3       23623   23745   23744   23622   0.
CQUAD4   20385   3       23591   23713   23714   23592   0.
CQUAD4   20386   3       23590   23712   23713   23591   0.
CQUAD4   20387   3       23589   23711   23712   23590   0.
CQUAD4   20388   3       23602   23724   23711   23589   0.
CQUAD4   20389   3       23601   23723   23724   23602   0.
CQUAD4   20390   3       23600   23722   23723   23601   0.
CQUAD4   20391   3       23599   23721   23722   23600   0.
CQUAD4   20392   3       23598   23720   23721   23599   0.
CQUAD4   20393   3       23597   23719   23720   23598   0.
CQUAD4   20394   3       23603   23725   23719   23597   0.
CQUAD4   20395   3       23626   23748   23731   23609   0.
CQUAD4   20396   3       23627   23749   23748   23626   0.
CQUAD4   20397   3       23611   23733   20024   20016   0.
CQUAD4   20398   3       23610   23732   23733   23611   0.
CQUAD4   20399   3       23609   23731   23732   23610   0.
CQUAD4   20400   3       23628   23750   23741   23619   0.
CQUAD4   20401   3       23608   23730   23731   23609   0.
CQUAD4   20402   3       23607   23729   23730   23608   0.
CQUAD4   20403   3       23606   23728   23729   23607   0.
CQUAD4   20404   3       23621   23743   23728   23606   0.
CQUAD4   20405   3       23620   23742   23743   23621   0.
CQUAD4   20406   3       23619   23741   23742   23620   0.
CQUAD4   20407   3       23618   23740   23741   23619   0.
CQUAD4   20408   3       23617   23739   23740   23618   0.
CQUAD4   20409   3       23616   23738   23739   23617   0.
CQUAD4   20410   3       23625   23747   23738   23616   0.
CQUAD4   20411   3       23624   23746   23747   23625   0.
CQUAD4   20412   3       23635   23757   23756   23634   0.
CQUAD4   20413   3       23636   23758   23757   23635   0.
CQUAD4   20414   3       23639   23761   23753   23631   0.
CQUAD4   20415   3       23640   23762   23761   23639   0.
CQUAD4   20416   3       23641   23763   23762   23640   0.
CQUAD4   20417   3       23632   23754   23755   23633   0.
CQUAD4   20418   3       23631   23753   23754   23632   0.
CQUAD4   20422   3       23630   23752   23753   23631   0.
CQUAD4   20423   3       23629   23751   23752   23630   0.
CQUAD4   20424   3       20017   20025   23751   23629   0.
CQUAD4   20425   3       23660   23782   23766   23644   0.
CQUAD4   20426   3       23661   23783   23782   23660   0.
CQUAD4   20427   3       23662   23784   23783   23661   0.
CQUAD4   20428   3       23668   23790   20030   20022   0.
CQUAD4   20429   3       23669   23791   23790   23668   0.
CQUAD4   20430   3       20019   20027   23791   23669   0.
CQUAD4   20431   3       23638   23760   20027   20019   0.
CQUAD4   20432   3       23637   23759   23760   23638   0.
CQUAD4   20433   3       23636   23758   23759   23637   0.
CQUAD4   20434   3       23646   23768   23758   23636   0.
CQUAD4   20435   3       23645   23767   23768   23646   0.
CQUAD4   20436   3       23644   23766   23767   23645   0.
CQUAD4   20437   3       23670   23792   23774   23652   0.
CQUAD4   20438   3       23671   23793   23792   23670   0.
CQUAD4   20439   3       23672   23794   23793   23671   0.
CQUAD4   20440   3       23643   23765   23766   23644   0.
CQUAD4   20441   3       23642   23764   23765   23643   0.
CQUAD4   20442   3       23641   23763   23764   23642   0.
CQUAD4   20443   3       23654   23776   23763   23641   0.
CQUAD4   20444   3       23653   23775   23776   23654   0.
CQUAD4   20445   3       23652   23774   23775   23653   0.
CQUAD4   20449   3       23651   23773   23774   23652   0.
CQUAD4   20461   3       23696   23818   23787   23665   0.
CQUAD4   20462   3       23697   23819   23818   23696   0.
CQUAD4   20463   3       23698   23820   23819   23697   0.
CQUAD4   20464   3       23667   23789   20030   20022   0.
CQUAD4   20465   3       23666   23788   23789   23667   0.
CQUAD4   20466   3       23665   23787   23788   23666   0.
CQUAD4   20467   3       23701   23823   23797   23675   0.
CQUAD4   20468   3       23702   23824   23823   23701   0.
CQUAD4   20469   3       23703   23825   23824   23702   0.
CQUAD4   20470   3       23664   23786   23787   23665   0.
CQUAD4   20471   3       23663   23785   23786   23664   0.
CQUAD4   20472   3       23662   23784   23785   23663   0.
CQUAD4   20473   3       23677   23799   23784   23662   0.
CQUAD4   20474   3       23676   23798   23799   23677   0.
CQUAD4   20475   3       23675   23797   23798   23676   0.
CQUAD4   20476   3       23709   23831   23805   23683   0.
CQUAD4   20477   3       23710   23832   23831   23709   0.
CQUAD4   20478   3       23711   23833   23832   23710   0.
CQUAD4   20479   3       23674   23796   23797   23675   0.
CQUAD4   20480   3       23673   23795   23796   23674   0.
CQUAD4   20481   3       23672   23794   23795   23673   0.
CQUAD4   20482   3       23685   23807   23794   23672   0.
CQUAD4   20483   3       23684   23806   23807   23685   0.
CQUAD4   20484   3       23683   23805   23806   23684   0.
CQUAD4   20485   3       23717   23839   23813   23691   0.
CQUAD4   20486   3       23718   23840   23839   23717   0.
CQUAD4   20487   3       23719   23841   23840   23718   0.
CQUAD4   20488   3       23682   23804   23805   23683   0.
CQUAD4   20489   3       23681   23803   23804   23682   0.
CQUAD4   20490   3       23680   23802   23803   23681   0.
CQUAD4   20491   3       23693   23815   23802   23680   0.
CQUAD4   20492   3       23692   23814   23815   23693   0.
CQUAD4   20493   3       23691   23813   23814   23692   0.
CQUAD4   20494   3       23690   23812   23813   23691   0.
CQUAD4   20495   3       23689   23811   23812   23690   0.
CQUAD4   20496   3       23688   23810   23811   23689   0.
CQUAD4   20497   3       23695   23817   23810   23688   0.
CQUAD4   20498   3       23694   23816   23817   23695   0.
CQUAD4   20499   3       23726   23848   23828   23706   0.
CQUAD4   20500   3       23727   23849   23848   23726   0.
CQUAD4   20501   3       23728   23850   23849   23727   0.
CQUAD4   20502   3       23734   23856   20032   20024   0.
CQUAD4   20503   3       23735   23857   23856   23734   0.
CQUAD4   20504   3       20023   20031   23857   23735   0.
CQUAD4   20505   3       23700   23822   20031   20023   0.
CQUAD4   20506   3       23699   23821   23822   23700   0.
CQUAD4   20507   3       23698   23820   23821   23699   0.
CQUAD4   20508   3       23708   23830   23820   23698   0.
CQUAD4   20509   3       23707   23829   23830   23708   0.
CQUAD4   20510   3       23706   23828   23829   23707   0.
CQUAD4   20511   3       23736   23858   23836   23714   0.
CQUAD4   20512   3       23737   23859   23858   23736   0.
CQUAD4   20513   3       23738   23860   23859   23737   0.
CQUAD4   20514   3       23705   23827   23828   23706   0.
CQUAD4   20515   3       23704   23826   23827   23705   0.
CQUAD4   20516   3       23703   23825   23826   23704   0.
CQUAD4   20517   3       23716   23838   23825   23703   0.
CQUAD4   20518   3       23715   23837   23838   23716   0.
CQUAD4   20519   3       23714   23836   23837   23715   0.
CQUAD4   20520   3       23744   23866   23844   23722   0.
CQUAD4   20521   3       23745   23867   23866   23744   0.
CQUAD4   20522   3       23713   23835   23836   23714   0.
CQUAD4   20523   3       23712   23834   23835   23713   0.
CQUAD4   20524   3       23711   23833   23834   23712   0.
CQUAD4   20525   3       23724   23846   23833   23711   0.
CQUAD4   20526   3       23723   23845   23846   23724   0.
CQUAD4   20527   3       23722   23844   23845   23723   0.
CQUAD4   20528   3       23721   23843   23844   23722   0.
CQUAD4   20529   3       23720   23842   23843   23721   0.
CQUAD4   20530   3       23719   23841   23842   23720   0.
CQUAD4   20531   3       23725   23847   23841   23719   0.
CQUAD4   20532   3       23748   23870   23853   23731   0.
CQUAD4   20533   3       23749   23871   23870   23748   0.
CQUAD4   20534   3       23733   23855   20032   20024   0.
CQUAD4   20535   3       23732   23854   23855   23733   0.
CQUAD4   20536   3       23731   23853   23854   23732   0.
CQUAD4   20537   3       23750   23872   23863   23741   0.
CQUAD4   20538   3       23730   23852   23853   23731   0.
CQUAD4   20539   3       23729   23851   23852   23730   0.
CQUAD4   20540   3       23728   23850   23851   23729   0.
CQUAD4   20541   3       23743   23865   23850   23728   0.
CQUAD4   20542   3       23742   23864   23865   23743   0.
CQUAD4   20543   3       23741   23863   23864   23742   0.
CQUAD4   20544   3       23740   23862   23863   23741   0.
CQUAD4   20545   3       23739   23861   23862   23740   0.
CQUAD4   20546   3       23738   23860   23861   23739   0.
CQUAD4   20547   3       23747   23869   23860   23738   0.
CQUAD4   20548   3       23746   23868   23869   23747   0.
CQUAD4   20549   3       23757   8       7       23756   0.
CQUAD4   20550   3       23758   9       8       23757   0.
CQUAD4   20551   3       23761   13      4       23753   0.
CQUAD4   20552   3       23762   14      13      23761   0.
CQUAD4   20553   3       23763   15      14      23762   0.
CQUAD4   20554   3       23754   5       6       23755   0.
CQUAD4   20555   3       23753   4       5       23754   0.
CQUAD4   20559   3       23752   3       4       23753   0.
CQUAD4   20560   3       23751   2       3       23752   0.
CQUAD4   20561   3       20025   1       2       23751   0.
CQUAD4   20562   3       23782   25      18      23766   0.
CQUAD4   20563   3       23783   26      25      23782   0.
CQUAD4   20564   3       23784   27      26      23783   0.
CQUAD4   20565   3       23790   34      33      20030   0.
CQUAD4   20566   3       23791   35      34      23790   0.
CQUAD4   20567   3       20027   12      35      23791   0.
CQUAD4   20568   3       23760   11      12      20027   0.
CQUAD4   20569   3       23759   10      11      23760   0.
CQUAD4   20570   3       23758   9       10      23759   0.
CQUAD4   20571   3       23768   20      9       23758   0.
CQUAD4   20572   3       23767   19      20      23768   0.
CQUAD4   20573   3       23766   18      19      23767   0.
CQUAD4   20574   3       23792   36      22      23774   0.
CQUAD4   20575   3       23793   37      36      23792   0.
CQUAD4   20576   3       23794   38      37      23793   0.
CQUAD4   20577   3       23765   17      18      23766   0.
CQUAD4   20578   3       23764   16      17      23765   0.
CQUAD4   20579   3       23763   15      16      23764   0.
CQUAD4   20580   3       23776   24      15      23763   0.
CQUAD4   20581   3       23775   23      24      23776   0.
CQUAD4   20582   3       23774   22      23      23775   0.
CQUAD4   20586   3       23773   21      22      23774   0.
CQUAD4   20598   3       23818   60      30      23787   0.
CQUAD4   20599   3       23819   61      60      23818   0.
CQUAD4   20600   3       23820   62      61      23819   0.
CQUAD4   20601   3       23789   32      33      20030   0.
CQUAD4   20602   3       23788   31      32      23789   0.
CQUAD4   20603   3       23787   30      31      23788   0.
CQUAD4   20604   3       23823   66      41      23797   0.
CQUAD4   20605   3       23824   67      66      23823   0.
CQUAD4   20606   3       23825   68      67      23824   0.
CQUAD4   20607   3       23786   29      30      23787   0.
CQUAD4   20608   3       23785   28      29      23786   0.
CQUAD4   20609   3       23784   27      28      23785   0.
CQUAD4   20610   3       23799   43      27      23784   0.
CQUAD4   20611   3       23798   42      43      23799   0.
CQUAD4   20612   3       23797   41      42      23798   0.
CQUAD4   20613   3       23831   74      48      23805   0.
CQUAD4   20614   3       23832   75      74      23831   0.
CQUAD4   20615   3       23833   76      75      23832   0.
CQUAD4   20616   3       23796   40      41      23797   0.
CQUAD4   20617   3       23795   39      40      23796   0.
CQUAD4   20618   3       23794   38      39      23795   0.
CQUAD4   20619   3       23807   50      38      23794   0.
CQUAD4   20620   3       23806   49      50      23807   0.
CQUAD4   20621   3       23805   48      49      23806   0.
CQUAD4   20622   3       23839   82      55      23813   0.
CQUAD4   20623   3       23840   83      82      23839   0.
CQUAD4   20624   3       23841   84      83      23840   0.
CQUAD4   20625   3       23804   47      48      23805   0.
CQUAD4   20626   3       23803   46      47      23804   0.
CQUAD4   20627   3       23802   45      46      23803   0.
CQUAD4   20628   3       23815   57      45      23802   0.
CQUAD4   20629   3       23814   56      57      23815   0.
CQUAD4   20630   3       23813   55      56      23814   0.
CQUAD4   20631   3       23812   54      55      23813   0.
CQUAD4   20632   3       23811   53      54      23812   0.
CQUAD4   20633   3       23810   52      53      23811   0.
CQUAD4   20634   3       23817   59      52      23810   0.
CQUAD4   20635   3       23816   58      59      23817   0.
CQUAD4   20636   3       23848   91      71      23828   0.
CQUAD4   20637   3       23849   92      91      23848   0.
CQUAD4   20638   3       23850   93      92      23849   0.
CQUAD4   20639   3       23856   100     99      20032   0.
CQUAD4   20640   3       23857   101     100     23856   0.
CQUAD4   20641   3       20031   65      101     23857   0.
CQUAD4   20642   3       23822   64      65      20031   0.
CQUAD4   20643   3       23821   63      64      23822   0.
CQUAD4   20644   3       23820   62      63      23821   0.
CQUAD4   20645   3       23830   73      62      23820   0.
CQUAD4   20646   3       23829   72      73      23830   0.
CQUAD4   20647   3       23828   71      72      23829   0.
CQUAD4   20648   3       23858   102     79      23836   0.
CQUAD4   20649   3       23859   103     102     23858   0.
CQUAD4   20650   3       23860   104     103     23859   0.
CQUAD4   20651   3       23827   70      71      23828   0.
CQUAD4   20652   3       23826   69      70      23827   0.
CQUAD4   20653   3       23825   68      69      23826   0.
CQUAD4   20654   3       23838   81      68      23825   0.
CQUAD4   20655   3       23837   80      81      23838   0.
CQUAD4   20656   3       23836   79      80      23837   0.
CQUAD4   20657   3       23866   110     87      23844   0.
CQUAD4   20658   3       23867   111     110     23866   0.
CQUAD4   20659   3       23835   78      79      23836   0.
CQUAD4   20660   3       23834   77      78      23835   0.
CQUAD4   20661   3       23833   76      77      23834   0.
CQUAD4   20662   3       23846   89      76      23833   0.
CQUAD4   20663   3       23845   88      89      23846   0.
CQUAD4   20664   3       23844   87      88      23845   0.
CQUAD4   20665   3       23843   86      87      23844   0.
CQUAD4   20666   3       23842   85      86      23843   0.
CQUAD4   20667   3       23841   84      85      23842   0.
CQUAD4   20668   3       23847   90      84      23841   0.
CQUAD4   20669   3       23870   114     96      23853   0.
CQUAD4   20670   3       23871   115     114     23870   0.
CQUAD4   20671   3       23855   98      99      20032   0.
CQUAD4   20672   3       23854   97      98      23855   0.
CQUAD4   20673   3       23853   96      97      23854   0.
CQUAD4   20674   3       23872   116     107     23863   0.
CQUAD4   20675   3       23852   95      96      23853   0.
CQUAD4   20676   3       23851   94      95      23852   0.
CQUAD4   20677   3       23850   93      94      23851   0.
CQUAD4   20678   3       23865   109     93      23850   0.
CQUAD4   20679   3       23864   108     109     23865   0.
CQUAD4   20680   3       23863   107     108     23864   0.
CQUAD4   20681   3       23862   106     107     23863   0.
CQUAD4   20682   3       23861   105     106     23862   0.
CQUAD4   20683   3       23860   104     105     23861   0.
CQUAD4   20684   3       23869   113     104     23860   0.
CQUAD4   20685   3       23868   112     113     23869   0.
CQUAD4   20686   3       10004   23873   23389   10020   0.
CQUAD4   20687   3       23873   23874   23511   23389   0.
CQUAD4   20688   3       23874   23875   23633   23511   0.
CQUAD4   20689   3       23875   23876   23755   23633   0.
CQUAD4   20690   3       23876   117     6       23755   0.
CQUAD4   20691   3       10038   23390   23877   10001   0.
CQUAD4   20692   3       23390   23512   23878   23877   0.
CQUAD4   20693   3       23512   23634   23879   23878   0.
CQUAD4   20694   3       23634   23756   23880   23879   0.
CQUAD4   20695   3       23756   7       118     23880   0.
CQUAD4   20696   3       10457   10041   23881   20033   0.
CQUAD4   20697   3       10041   10006   23882   23881   0.
CQUAD4   20698   3       10006   10001   23877   23882   0.
CQUAD4   20699   3       10001   10002   23883   23877   0.
CQUAD4   20700   3       10002   10003   23884   23883   0.
CQUAD4   20701   3       10003   10004   23873   23884   0.
CQUAD4   20702   3       10004   10005   23885   23873   0.
CQUAD4   20703   3       10005   10017   23886   23885   0.
CQUAD4   20704   3       10017   10456   20034   23886   0.
CQUAD4   20705   3       20033   23881   23887   20035   0.
CQUAD4   20706   3       23881   23882   23888   23887   0.
CQUAD4   20707   3       23882   23877   23878   23888   0.
CQUAD4   20708   3       23877   23883   23889   23878   0.
CQUAD4   20709   3       23883   23884   23890   23889   0.
CQUAD4   20710   3       23884   23873   23874   23890   0.
CQUAD4   20711   3       23873   23885   23891   23874   0.
CQUAD4   20712   3       23885   23886   23892   23891   0.
CQUAD4   20713   3       23886   20034   20036   23892   0.
CQUAD4   20714   3       20035   23887   23893   20037   0.
CQUAD4   20715   3       23887   23888   23894   23893   0.
CQUAD4   20716   3       23888   23878   23879   23894   0.
CQUAD4   20717   3       23878   23889   23895   23879   0.
CQUAD4   20718   3       23889   23890   23896   23895   0.
CQUAD4   20719   3       23890   23874   23875   23896   0.
CQUAD4   20720   3       23874   23891   23897   23875   0.
CQUAD4   20721   3       23891   23892   23898   23897   0.
CQUAD4   20722   3       23892   20036   20038   23898   0.
CQUAD4   20723   3       20037   23893   23899   20039   0.
CQUAD4   20724   3       23893   23894   23900   23899   0.
CQUAD4   20725   3       23894   23879   23880   23900   0.
CQUAD4   20726   3       23879   23895   23901   23880   0.
CQUAD4   20727   3       23895   23896   23902   23901   0.
CQUAD4   20728   3       23896   23875   23876   23902   0.
CQUAD4   20729   3       23875   23897   23903   23876   0.
CQUAD4   20730   3       23897   23898   23904   23903   0.
CQUAD4   20731   3       23898   20038   20040   23904   0.
CQUAD4   20732   3       20039   23899   119     120     0.
CQUAD4   20733   3       23899   23900   121     119     0.
CQUAD4   20734   3       23900   23880   118     121     0.
CQUAD4   20735   3       23880   23901   122     118     0.
CQUAD4   20736   3       23901   23902   123     122     0.
CQUAD4   20737   3       23902   23876   117     123     0.
CQUAD4   20738   3       23876   23903   124     117     0.
CQUAD4   20739   3       23903   23904   125     124     0.
CQUAD4   20740   3       23904   20040   126     125     0.
CQUAD4   20741   3       10241   23450   23905   10231   0.
CQUAD4   20742   3       23450   23572   23906   23905   0.
CQUAD4   20743   3       23572   23694   23907   23906   0.
CQUAD4   20744   3       23694   23816   23908   23907   0.
CQUAD4   20745   3       23816   58      127     23908   0.
CQUAD4   20746   3       10357   23481   23909   10359   0.
CQUAD4   20747   3       23481   23603   23910   23909   0.
CQUAD4   20748   3       23603   23725   23911   23910   0.
CQUAD4   20749   3       23725   23847   23912   23911   0.
CQUAD4   20750   3       23847   90      128     23912   0.
CQUAD4   20751   3       10426   10425   23913   23501   0.
CQUAD4   20752   3       23501   23913   23914   23623   0.
CQUAD4   20753   3       23623   23914   23915   23745   0.
CQUAD4   20754   3       23745   23915   23916   23867   0.
CQUAD4   20755   3       23867   23916   129     111     0.
CQUAD4   20756   3       10442   10459   23917   23502   0.
CQUAD4   20757   3       23502   23917   23918   23624   0.
CQUAD4   20758   3       23624   23918   23919   23746   0.
CQUAD4   20759   3       23746   23919   23920   23868   0.
CQUAD4   20760   3       23868   23920   130     112     0.
CQUAD4   20761   3       10455   10489   23921   23506   0.
CQUAD4   20762   3       23506   23921   23922   23628   0.
CQUAD4   20763   3       23628   23922   23923   23750   0.
CQUAD4   20764   3       23750   23923   23924   23872   0.
CQUAD4   20765   3       23872   23924   131     116     0.
CQUAD4   20766   3       10453   10463   23925   23505   0.
CQUAD4   20767   3       23505   23925   23926   23627   0.
CQUAD4   20768   3       23627   23926   23927   23749   0.
CQUAD4   20769   3       23749   23927   23928   23871   0.
CQUAD4   20770   3       23871   23928   132     115     0.
CQUAD4   20771   3       10233   10232   23929   20041   0.
CQUAD4   20772   3       10232   10458   23930   23929   0.
CQUAD4   20773   3       10458   10231   23905   23930   0.
CQUAD4   20774   3       10231   10347   23931   23905   0.
CQUAD4   20775   3       10347   10345   23932   23931   0.
CQUAD4   20776   3       10345   10344   23933   23932   0.
CQUAD4   20777   3       10344   10342   23934   23933   0.
CQUAD4   20778   3       10342   10343   23935   23934   0.
CQUAD4   20779   3       10343   10359   23909   23935   0.
CQUAD4   20780   3       10359   10444   23936   23909   0.
CQUAD4   20781   3       10444   10445   23937   23936   0.
CQUAD4   20782   3       10445   10443   23938   23937   0.
CQUAD4   20783   3       10443   10451   23939   23938   0.
CQUAD4   20784   3       10451   10452   23940   23939   0.
CQUAD4   20785   3       10452   10425   23913   23940   0.
CQUAD4   20786   3       10425   10422   23941   23913   0.
CQUAD4   20787   3       10422   10420   23942   23941   0.
CQUAD4   20788   3       10420   10459   23917   23942   0.
CQUAD4   20789   3       10459   10499   23943   23917   0.
CQUAD4   20790   3       10499   10498   23944   23943   0.
CQUAD4   20791   3       10498   10490   23945   23944   0.
CQUAD4   20792   3       10490   10492   23946   23945   0.
CQUAD4   20793   3       10492   10491   23947   23946   0.
CQUAD4   20794   3       10491   10489   23921   23947   0.
CQUAD4   20795   3       10489   10474   23948   23921   0.
CQUAD4   20796   3       10474   10473   23949   23948   0.
CQUAD4   20797   3       10473   10475   23950   23949   0.
CQUAD4   20798   3       10475   10476   23951   23950   0.
CQUAD4   20799   3       10476   10478   23952   23951   0.
CQUAD4   20800   3       10478   10463   23925   23952   0.
CQUAD4   20801   3       10463   10500   23953   23925   0.
CQUAD4   20802   3       10500   10464   23954   23953   0.
CQUAD4   20803   3       10464   10465   20042   23954   0.
CQUAD4   20804   3       20041   23929   23955   20043   0.
CQUAD4   20805   3       23929   23930   23956   23955   0.
CQUAD4   20806   3       23930   23905   23906   23956   0.
CQUAD4   20807   3       23905   23931   23957   23906   0.
CQUAD4   20808   3       23931   23932   23958   23957   0.
CQUAD4   20809   3       23932   23933   23959   23958   0.
CQUAD4   20810   3       23933   23934   23960   23959   0.
CQUAD4   20811   3       23934   23935   23961   23960   0.
CQUAD4   20812   3       23935   23909   23910   23961   0.
CQUAD4   20813   3       23909   23936   23962   23910   0.
CQUAD4   20814   3       23936   23937   23963   23962   0.
CQUAD4   20815   3       23937   23938   23964   23963   0.
CQUAD4   20816   3       23938   23939   23965   23964   0.
CQUAD4   20817   3       23939   23940   23966   23965   0.
CQUAD4   20818   3       23940   23913   23914   23966   0.
CQUAD4   20819   3       23913   23941   23967   23914   0.
CQUAD4   20820   3       23941   23942   23968   23967   0.
CQUAD4   20821   3       23942   23917   23918   23968   0.
CQUAD4   20822   3       23917   23943   23969   23918   0.
CQUAD4   20823   3       23943   23944   23970   23969   0.
CQUAD4   20824   3       23944   23945   23971   23970   0.
CQUAD4   20825   3       23945   23946   23972   23971   0.
CQUAD4   20826   3       23946   23947   23973   23972   0.
CQUAD4   20827   3       23947   23921   23922   23973   0.
CQUAD4   20828   3       23921   23948   23974   23922   0.
CQUAD4   20829   3       23948   23949   23975   23974   0.
CQUAD4   20830   3       23949   23950   23976   23975   0.
CQUAD4   20831   3       23950   23951   23977   23976   0.
CQUAD4   20832   3       23951   23952   23978   23977   0.
CQUAD4   20833   3       23952   23925   23926   23978   0.
CQUAD4   20834   3       23925   23953   23979   23926   0.
CQUAD4   20835   3       23953   23954   23980   23979   0.
CQUAD4   20836   3       23954   20042   20044   23980   0.
CQUAD4   20837   3       20043   23955   23981   20045   0.
CQUAD4   20838   3       23955   23956   23982   23981   0.
CQUAD4   20839   3       23956   23906   23907   23982   0.
CQUAD4   20840   3       23906   23957   23983   23907   0.
CQUAD4   20841   3       23957   23958   23984   23983   0.
CQUAD4   20842   3       23958   23959   23985   23984   0.
CQUAD4   20843   3       23959   23960   23986   23985   0.
CQUAD4   20844   3       23960   23961   23987   23986   0.
CQUAD4   20845   3       23961   23910   23911   23987   0.
CQUAD4   20846   3       23910   23962   23988   23911   0.
CQUAD4   20847   3       23962   23963   23989   23988   0.
CQUAD4   20848   3       23963   23964   23990   23989   0.
CQUAD4   20849   3       23964   23965   23991   23990   0.
CQUAD4   20850   3       23965   23966   23992   23991   0.
CQUAD4   20851   3       23966   23914   23915   23992   0.
CQUAD4   20852   3       23914   23967   23993   23915   0.
CQUAD4   20853   3       23967   23968   23994   23993   0.
CQUAD4   20854   3       23968   23918   23919   23994   0.
CQUAD4   20855   3       23918   23969   23995   23919   0.
CQUAD4   20856   3       23969   23970   23996   23995   0.
CQUAD4   20857   3       23970   23971   23997   23996   0.
CQUAD4   20858   3       23971   23972   23998   23997   0.
CQUAD4   20859   3       23972   23973   23999   23998   0.
CQUAD4   20860   3       23973   23922   23923   23999   0.
CQUAD4   20861   3       23922   23974   24000   23923   0.
CQUAD4   20862   3       23974   23975   24001   24000   0.
CQUAD4   20863   3       23975   23976   24002   24001   0.
CQUAD4   20864   3       23976   23977   24003   24002   0.
CQUAD4   20865   3       23977   23978   24004   24003   0.
CQUAD4   20866   3       23978   23926   23927   24004   0.
CQUAD4   20867   3       23926   23979   24005   23927   0.
CQUAD4   20868   3       23979   23980   24006   24005   0.
CQUAD4   20869   3       23980   20044   20046   24006   0.
CQUAD4   20870   3       20045   23981   24007   20047   0.
CQUAD4   20871   3       23981   23982   24008   24007   0.
CQUAD4   20872   3       23982   23907   23908   24008   0.
CQUAD4   20873   3       23907   23983   24009   23908   0.
CQUAD4   20874   3       23983   23984   24010   24009   0.
CQUAD4   20875   3       23984   23985   24011   24010   0.
CQUAD4   20876   3       23985   23986   24012   24011   0.
CQUAD4   20877   3       23986   23987   24013   24012   0.
CQUAD4   20878   3       23987   23911   23912   24013   0.
CQUAD4   20879   3       23911   23988   24014   23912   0.
CQUAD4   20880   3       23988   23989   24015   24014   0.
CQUAD4   20881   3       23989   23990   24016   24015   0.
CQUAD4   20882   3       23990   23991   24017   24016   0.
CQUAD4   20883   3       23991   23992   24018   24017   0.
CQUAD4   20884   3       23992   23915   23916   24018   0.
CQUAD4   20885   3       23915   23993   24019   23916   0.
CQUAD4   20886   3       23993   23994   24020   24019   0.
CQUAD4   20887   3       23994   23919   23920   24020   0.
CQUAD4   20888   3       23919   23995   24021   23920   0.
CQUAD4   20889   3       23995   23996   24022   24021   0.
CQUAD4   20890   3       23996   23997   24023   24022   0.
CQUAD4   20891   3       23997   23998   24024   24023   0.
CQUAD4   20892   3       23998   23999   24025   24024   0.
CQUAD4   20893   3       23999   23923   23924   24025   0.
CQUAD4   20894   3       23923   24000   24026   23924   0.
CQUAD4   20895   3       24000   24001   24027   24026   0.
CQUAD4   20896   3       24001   24002   24028   24027   0.
CQUAD4   20897   3       24002   24003   24029   24028   0.
CQUAD4   20898   3       24003   24004   24030   24029   0.
CQUAD4   20899   3       24004   23927   23928   24030   0.
CQUAD4   20900   3       23927   24005   24031   23928   0.
CQUAD4   20901   3       24005   24006   24032   24031   0.
CQUAD4   20902   3       24006   20046   20048   24032   0.
CQUAD4   20903   3       20047   24007   133     134     0.
CQUAD4   20904   3       24007   24008   135     133     0.
CQUAD4   20905   3       24008   23908   127     135     0.
CQUAD4   20906   3       23908   24009   136     127     0.
CQUAD4   20907   3       24009   24010   137     136     0.
CQUAD4   20908   3       24010   24011   138     137     0.
CQUAD4   20909   3       24011   24012   139     138     0.
CQUAD4   20910   3       24012   24013   140     139     0.
CQUAD4   20911   3       24013   23912   128     140     0.
CQUAD4   20912   3       23912   24014   141     128     0.
CQUAD4   20913   3       24014   24015   142     141     0.
CQUAD4   20914   3       24015   24016   143     142     0.
CQUAD4   20915   3       24016   24017   144     143     0.
CQUAD4   20916   3       24017   24018   145     144     0.
CQUAD4   20917   3       24018   23916   129     145     0.
CQUAD4   20918   3       23916   24019   146     129     0.
CQUAD4   20919   3       24019   24020   147     146     0.
CQUAD4   20920   3       24020   23920   130     147     0.
CQUAD4   20921   3       23920   24021   148     130     0.
CQUAD4   20922   3       24021   24022   149     148     0.
CQUAD4   20923   3       24022   24023   150     149     0.
CQUAD4   20924   3       24023   24024   151     150     0.
CQUAD4   20925   3       24024   24025   152     151     0.
CQUAD4   20926   3       24025   23924   131     152     0.
CQUAD4   20927   3       23924   24026   153     131     0.
CQUAD4   20928   3       24026   24027   154     153     0.
CQUAD4   20929   3       24027   24028   155     154     0.
CQUAD4   20930   3       24028   24029   156     155     0.
CQUAD4   20931   3       24029   24030   157     156     0.
CQUAD4   20932   3       24030   23928   132     157     0.
CQUAD4   20933   3       23928   24031   158     132     0.
CQUAD4   20934   3       24031   24032   159     158     0.
CQUAD4   20935   3       24032   20048   160     159     0.
CQUAD4   20936   3       10552   20057   20056   10553   0.
CQUAD4   20937   3       10551   20058   20057   10552   0.
CQUAD4   20938   3       10560   20061   20052   10541   0.
CQUAD4   20939   3       10559   20062   20061   10560   0.
CQUAD4   20940   3       10558   20063   20062   10559   0.
CQUAD4   20941   3       10547   20053   20054   10546   0.
CQUAD4   20942   3       10541   20052   20053   10547   0.
CQUAD4   20943   3       10568   20069   20055   10548   0.
CQUAD4   20944   3       10567   20070   20069   10568   0.
CQUAD4   20945   3       10566   20071   20070   10567   0.
CQUAD4   20946   3       10542   20051   20052   10541   0.
CQUAD4   20947   3       10543   20050   20051   10542   0.
CQUAD4   20948   3       10544   20049   20050   10543   0.
CQUAD4   20954   3       10016   20001   20093   10024   0.
CQUAD4   20955   3       10549   20060   20001   10016   0.
CQUAD4   20956   3       10550   20059   20060   10549   0.
CQUAD4   20957   3       10551   20058   20059   10550   0.
CQUAD4   20958   3       10561   20068   20058   10551   0.
CQUAD4   20961   3       10591   20094   20074   10563   0.
CQUAD4   20962   3       10590   20095   20094   10591   0.
CQUAD4   20963   3       10589   20096   20095   10590   0.
CQUAD4   20965   3       10557   20064   20065   10556   0.
CQUAD4   20966   3       10558   20063   20064   10557   0.
CQUAD4   20967   3       10569   20076   20063   10558   0.
CQUAD4   20968   3       10570   20075   20076   10569   0.
CQUAD4   20969   3       10563   20074   20075   10570   0.
CQUAD4   20970   3       10599   20102   20080   10571   0.
CQUAD4   20971   3       10598   20103   20102   10599   0.
CQUAD4   20972   3       10597   20104   20103   10598   0.
CQUAD4   20973   3       10564   20073   20074   10563   0.
CQUAD4   20974   3       10565   20072   20073   10564   0.
CQUAD4   20975   3       10566   20071   20072   10565   0.
CQUAD4   20976   3       10575   20082   20071   10566   0.
CQUAD4   20978   3       10571   20080   20081   10576   0.
CQUAD4   20979   3       10607   20110   20083   10577   0.
CQUAD4   20981   3       10605   20112   20111   10606   0.
CQUAD4   20982   3       10572   20079   20080   10571   0.
CQUAD4   20983   3       10573   20078   20079   10572   0.
CQUAD4   20984   3       10574   20077   20078   10573   0.
CQUAD4   21000   3       10633   20133   20107   10594   0.
CQUAD4   21001   3       10632   20134   20133   10633   0.
CQUAD4   21002   3       10631   20135   20134   10632   0.
CQUAD4   21004   3       10588   20097   20098   10587   0.
CQUAD4   21005   3       10589   20096   20097   10588   0.
CQUAD4   21006   3       10600   20109   20096   10589   0.
CQUAD4   21007   3       10601   20108   20109   10600   0.
CQUAD4   21008   3       10594   20107   20108   10601   0.
CQUAD4   21009   3       10641   20141   20115   10602   0.
CQUAD4   21010   3       10640   20142   20141   10641   0.
CQUAD4   21011   3       10639   20143   20142   10640   0.
CQUAD4   21012   3       10595   20106   20107   10594   0.
CQUAD4   21013   3       10596   20105   20106   10595   0.
CQUAD4   21014   3       10597   20104   20105   10596   0.
CQUAD4   21015   3       10608   20117   20104   10597   0.
CQUAD4   21016   3       10609   20116   20117   10608   0.
CQUAD4   21017   3       10602   20115   20116   10609   0.
CQUAD4   21018   3       10603   20114   20115   10602   0.
CQUAD4   21019   3       10604   20113   20114   10603   0.
CQUAD4   21020   3       10605   20112   20113   10604   0.
CQUAD4   21021   3       10613   20119   20112   10605   0.
CQUAD4   21022   3       10614   20118   20119   10613   0.
CQUAD4   21044   3       10671   20168   20146   10636   0.
CQUAD4   21045   3       10670   20169   20168   10671   0.
CQUAD4   21047   3       10630   20136   20137   10629   0.
CQUAD4   21048   3       10631   20135   20136   10630   0.
CQUAD4   21049   3       10642   20148   20135   10631   0.
CQUAD4   21050   3       10643   20147   20148   10642   0.
CQUAD4   21051   3       10636   20146   20147   10643   0.
CQUAD4   21052   3       10637   20145   20146   10636   0.
CQUAD4   21053   3       10638   20144   20145   10637   0.
CQUAD4   21054   3       10639   20143   20144   10638   0.
CQUAD4   21055   3       10649   20149   20143   10639   0.
CQUAD4   21061   3       10681   20174   20165   10659   0.
CQUAD4   21068   3       10660   20164   20165   10659   0.
CQUAD4   21069   3       10661   20163   20164   10660   0.
CQUAD4   21070   3       10662   20162   20163   10661   0.
CQUAD4   21071   3       10672   20171   20162   10662   0.
CQUAD4   21072   3       10673   20170   20171   10672   0.
CQUAD4   21073   3       20057   20183   20182   20056   0.
CQUAD4   21074   3       20058   20184   20183   20057   0.
CQUAD4   21075   3       20061   20187   20178   20052   0.
CQUAD4   21076   3       20062   20188   20187   20061   0.
CQUAD4   21077   3       20063   20189   20188   20062   0.
CQUAD4   21078   3       20053   20179   20180   20054   0.
CQUAD4   21079   3       20052   20178   20179   20053   0.
CQUAD4   21080   3       20069   20195   20181   20055   0.
CQUAD4   21081   3       20070   20196   20195   20069   0.
CQUAD4   21082   3       20071   20197   20196   20070   0.
CQUAD4   21083   3       20051   20177   20178   20052   0.
CQUAD4   21084   3       20050   20176   20177   20051   0.
CQUAD4   21085   3       20049   20175   20176   20050   0.
CQUAD4   21091   3       20001   20009   20219   20093   0.
CQUAD4   21092   3       20060   20186   20009   20001   0.
CQUAD4   21093   3       20059   20185   20186   20060   0.
CQUAD4   21094   3       20058   20184   20185   20059   0.
CQUAD4   21095   3       20068   20194   20184   20058   0.
CQUAD4   21098   3       20094   20220   20200   20074   0.
CQUAD4   21099   3       20095   20221   20220   20094   0.
CQUAD4   21100   3       20096   20222   20221   20095   0.
CQUAD4   21102   3       20064   20190   20191   20065   0.
CQUAD4   21103   3       20063   20189   20190   20064   0.
CQUAD4   21104   3       20076   20202   20189   20063   0.
CQUAD4   21105   3       20075   20201   20202   20076   0.
CQUAD4   21106   3       20074   20200   20201   20075   0.
CQUAD4   21107   3       20102   20228   20206   20080   0.
CQUAD4   21108   3       20103   20229   20228   20102   0.
CQUAD4   21109   3       20104   20230   20229   20103   0.
CQUAD4   21110   3       20073   20199   20200   20074   0.
CQUAD4   21111   3       20072   20198   20199   20073   0.
CQUAD4   21112   3       20071   20197   20198   20072   0.
CQUAD4   21113   3       20082   20208   20197   20071   0.
CQUAD4   21115   3       20080   20206   20207   20081   0.
CQUAD4   21116   3       20110   20236   20209   20083   0.
CQUAD4   21118   3       20112   20238   20237   20111   0.
CQUAD4   21119   3       20079   20205   20206   20080   0.
CQUAD4   21120   3       20078   20204   20205   20079   0.
CQUAD4   21121   3       20077   20203   20204   20078   0.
CQUAD4   21137   3       20133   20259   20233   20107   0.
CQUAD4   21138   3       20134   20260   20259   20133   0.
CQUAD4   21139   3       20135   20261   20260   20134   0.
CQUAD4   21141   3       20097   20223   20224   20098   0.
CQUAD4   21142   3       20096   20222   20223   20097   0.
CQUAD4   21143   3       20109   20235   20222   20096   0.
CQUAD4   21144   3       20108   20234   20235   20109   0.
CQUAD4   21145   3       20107   20233   20234   20108   0.
CQUAD4   21146   3       20141   20267   20241   20115   0.
CQUAD4   21147   3       20142   20268   20267   20141   0.
CQUAD4   21148   3       20143   20269   20268   20142   0.
CQUAD4   21149   3       20106   20232   20233   20107   0.
CQUAD4   21150   3       20105   20231   20232   20106   0.
CQUAD4   21151   3       20104   20230   20231   20105   0.
CQUAD4   21152   3       20117   20243   20230   20104   0.
CQUAD4   21153   3       20116   20242   20243   20117   0.
CQUAD4   21154   3       20115   20241   20242   20116   0.
CQUAD4   21155   3       20114   20240   20241   20115   0.
CQUAD4   21156   3       20113   20239   20240   20114   0.
CQUAD4   21157   3       20112   20238   20239   20113   0.
CQUAD4   21158   3       20119   20245   20238   20112   0.
CQUAD4   21159   3       20118   20244   20245   20119   0.
CQUAD4   21181   3       20168   20294   20272   20146   0.
CQUAD4   21182   3       20169   20295   20294   20168   0.
CQUAD4   21184   3       20136   20262   20263   20137   0.
CQUAD4   21185   3       20135   20261   20262   20136   0.
CQUAD4   21186   3       20148   20274   20261   20135   0.
CQUAD4   21187   3       20147   20273   20274   20148   0.
CQUAD4   21188   3       20146   20272   20273   20147   0.
CQUAD4   21189   3       20145   20271   20272   20146   0.
CQUAD4   21190   3       20144   20270   20271   20145   0.
CQUAD4   21191   3       20143   20269   20270   20144   0.
CQUAD4   21192   3       20149   20275   20269   20143   0.
CQUAD4   21198   3       20174   20300   20291   20165   0.
CQUAD4   21205   3       20164   20290   20291   20165   0.
CQUAD4   21206   3       20163   20289   20290   20164   0.
CQUAD4   21207   3       20162   20288   20289   20163   0.
CQUAD4   21208   3       20171   20297   20288   20162   0.
CQUAD4   21209   3       20170   20296   20297   20171   0.
CQUAD4   21210   3       20183   20309   20308   20182   0.
CQUAD4   21211   3       20184   20310   20309   20183   0.
CQUAD4   21212   3       20187   20313   20304   20178   0.
CQUAD4   21213   3       20188   20314   20313   20187   0.
CQUAD4   21214   3       20189   20315   20314   20188   0.
CQUAD4   21215   3       20179   20305   20306   20180   0.
CQUAD4   21216   3       20178   20304   20305   20179   0.
CQUAD4   21217   3       20195   20321   20307   20181   0.
CQUAD4   21218   3       20196   20322   20321   20195   0.
CQUAD4   21219   3       20197   20323   20322   20196   0.
CQUAD4   21220   3       20177   20303   20304   20178   0.
CQUAD4   21221   3       20176   20302   20303   20177   0.
CQUAD4   21222   3       20175   20301   20302   20176   0.
CQUAD4   21228   3       20009   20017   20345   20219   0.
CQUAD4   21229   3       20186   20312   20017   20009   0.
CQUAD4   21230   3       20185   20311   20312   20186   0.
CQUAD4   21231   3       20184   20310   20311   20185   0.
CQUAD4   21232   3       20194   20320   20310   20184   0.
CQUAD4   21235   3       20220   20346   20326   20200   0.
CQUAD4   21236   3       20221   20347   20346   20220   0.
CQUAD4   21237   3       20222   20348   20347   20221   0.
CQUAD4   21239   3       20190   20316   20317   20191   0.
CQUAD4   21240   3       20189   20315   20316   20190   0.
CQUAD4   21241   3       20202   20328   20315   20189   0.
CQUAD4   21242   3       20201   20327   20328   20202   0.
CQUAD4   21243   3       20200   20326   20327   20201   0.
CQUAD4   21244   3       20228   20354   20332   20206   0.
CQUAD4   21245   3       20229   20355   20354   20228   0.
CQUAD4   21246   3       20230   20356   20355   20229   0.
CQUAD4   21247   3       20199   20325   20326   20200   0.
CQUAD4   21248   3       20198   20324   20325   20199   0.
CQUAD4   21249   3       20197   20323   20324   20198   0.
CQUAD4   21250   3       20208   20334   20323   20197   0.
CQUAD4   21252   3       20206   20332   20333   20207   0.
CQUAD4   21253   3       20236   20362   20335   20209   0.
CQUAD4   21255   3       20238   20364   20363   20237   0.
CQUAD4   21256   3       20205   20331   20332   20206   0.
CQUAD4   21257   3       20204   20330   20331   20205   0.
CQUAD4   21258   3       20203   20329   20330   20204   0.
CQUAD4   21274   3       20259   20385   20359   20233   0.
CQUAD4   21275   3       20260   20386   20385   20259   0.
CQUAD4   21276   3       20261   20387   20386   20260   0.
CQUAD4   21278   3       20223   20349   20350   20224   0.
CQUAD4   21279   3       20222   20348   20349   20223   0.
CQUAD4   21280   3       20235   20361   20348   20222   0.
CQUAD4   21281   3       20234   20360   20361   20235   0.
CQUAD4   21282   3       20233   20359   20360   20234   0.
CQUAD4   21283   3       20267   20393   20367   20241   0.
CQUAD4   21284   3       20268   20394   20393   20267   0.
CQUAD4   21285   3       20269   20395   20394   20268   0.
CQUAD4   21286   3       20232   20358   20359   20233   0.
CQUAD4   21287   3       20231   20357   20358   20232   0.
CQUAD4   21288   3       20230   20356   20357   20231   0.
CQUAD4   21289   3       20243   20369   20356   20230   0.
CQUAD4   21290   3       20242   20368   20369   20243   0.
CQUAD4   21291   3       20241   20367   20368   20242   0.
CQUAD4   21292   3       20240   20366   20367   20241   0.
CQUAD4   21293   3       20239   20365   20366   20240   0.
CQUAD4   21294   3       20238   20364   20365   20239   0.
CQUAD4   21295   3       20245   20371   20364   20238   0.
CQUAD4   21296   3       20244   20370   20371   20245   0.
CQUAD4   21318   3       20294   20420   20398   20272   0.
CQUAD4   21319   3       20295   20421   20420   20294   0.
CQUAD4   21321   3       20262   20388   20389   20263   0.
CQUAD4   21322   3       20261   20387   20388   20262   0.
CQUAD4   21323   3       20274   20400   20387   20261   0.
CQUAD4   21324   3       20273   20399   20400   20274   0.
CQUAD4   21325   3       20272   20398   20399   20273   0.
CQUAD4   21326   3       20271   20397   20398   20272   0.
CQUAD4   21327   3       20270   20396   20397   20271   0.
CQUAD4   21328   3       20269   20395   20396   20270   0.
CQUAD4   21329   3       20275   20401   20395   20269   0.
CQUAD4   21335   3       20300   20426   20417   20291   0.
CQUAD4   21342   3       20290   20416   20417   20291   0.
CQUAD4   21343   3       20289   20415   20416   20290   0.
CQUAD4   21344   3       20288   20414   20415   20289   0.
CQUAD4   21345   3       20297   20423   20414   20288   0.
CQUAD4   21346   3       20296   20422   20423   20297   0.
CQUAD4   21347   3       20309   20435   20434   20308   0.
CQUAD4   21348   3       20310   20436   20435   20309   0.
CQUAD4   21349   3       20313   20439   20430   20304   0.
CQUAD4   21350   3       20314   20440   20439   20313   0.
CQUAD4   21351   3       20315   20441   20440   20314   0.
CQUAD4   21352   3       20305   20431   20432   20306   0.
CQUAD4   21353   3       20304   20430   20431   20305   0.
CQUAD4   21354   3       20321   20447   20433   20307   0.
CQUAD4   21355   3       20322   20448   20447   20321   0.
CQUAD4   21356   3       20323   20449   20448   20322   0.
CQUAD4   21357   3       20303   20429   20430   20304   0.
CQUAD4   21358   3       20302   20428   20429   20303   0.
CQUAD4   21359   3       20301   20427   20428   20302   0.
CQUAD4   21365   3       20017   20025   20471   20345   0.
CQUAD4   21366   3       20312   20438   20025   20017   0.
CQUAD4   21367   3       20311   20437   20438   20312   0.
CQUAD4   21368   3       20310   20436   20437   20311   0.
CQUAD4   21369   3       20320   20446   20436   20310   0.
CQUAD4   21372   3       20346   20472   20452   20326   0.
CQUAD4   21373   3       20347   20473   20472   20346   0.
CQUAD4   21374   3       20348   20474   20473   20347   0.
CQUAD4   21376   3       20316   20442   20443   20317   0.
CQUAD4   21377   3       20315   20441   20442   20316   0.
CQUAD4   21378   3       20328   20454   20441   20315   0.
CQUAD4   21379   3       20327   20453   20454   20328   0.
CQUAD4   21380   3       20326   20452   20453   20327   0.
CQUAD4   21381   3       20354   20480   20458   20332   0.
CQUAD4   21382   3       20355   20481   20480   20354   0.
CQUAD4   21383   3       20356   20482   20481   20355   0.
CQUAD4   21384   3       20325   20451   20452   20326   0.
CQUAD4   21385   3       20324   20450   20451   20325   0.
CQUAD4   21386   3       20323   20449   20450   20324   0.
CQUAD4   21387   3       20334   20460   20449   20323   0.
CQUAD4   21389   3       20332   20458   20459   20333   0.
CQUAD4   21390   3       20362   20488   20461   20335   0.
CQUAD4   21392   3       20364   20490   20489   20363   0.
CQUAD4   21393   3       20331   20457   20458   20332   0.
CQUAD4   21394   3       20330   20456   20457   20331   0.
CQUAD4   21395   3       20329   20455   20456   20330   0.
CQUAD4   21411   3       20385   20511   20485   20359   0.
CQUAD4   21412   3       20386   20512   20511   20385   0.
CQUAD4   21413   3       20387   20513   20512   20386   0.
CQUAD4   21415   3       20349   20475   20476   20350   0.
CQUAD4   21416   3       20348   20474   20475   20349   0.
CQUAD4   21417   3       20361   20487   20474   20348   0.
CQUAD4   21418   3       20360   20486   20487   20361   0.
CQUAD4   21419   3       20359   20485   20486   20360   0.
CQUAD4   21420   3       20393   20519   20493   20367   0.
CQUAD4   21421   3       20394   20520   20519   20393   0.
CQUAD4   21422   3       20395   20521   20520   20394   0.
CQUAD4   21423   3       20358   20484   20485   20359   0.
CQUAD4   21424   3       20357   20483   20484   20358   0.
CQUAD4   21425   3       20356   20482   20483   20357   0.
CQUAD4   21426   3       20369   20495   20482   20356   0.
CQUAD4   21427   3       20368   20494   20495   20369   0.
CQUAD4   21428   3       20367   20493   20494   20368   0.
CQUAD4   21429   3       20366   20492   20493   20367   0.
CQUAD4   21430   3       20365   20491   20492   20366   0.
CQUAD4   21431   3       20364   20490   20491   20365   0.
CQUAD4   21432   3       20371   20497   20490   20364   0.
CQUAD4   21433   3       20370   20496   20497   20371   0.
CQUAD4   21455   3       20420   20546   20524   20398   0.
CQUAD4   21456   3       20421   20547   20546   20420   0.
CQUAD4   21458   3       20388   20514   20515   20389   0.
CQUAD4   21459   3       20387   20513   20514   20388   0.
CQUAD4   21460   3       20400   20526   20513   20387   0.
CQUAD4   21461   3       20399   20525   20526   20400   0.
CQUAD4   21462   3       20398   20524   20525   20399   0.
CQUAD4   21463   3       20397   20523   20524   20398   0.
CQUAD4   21464   3       20396   20522   20523   20397   0.
CQUAD4   21465   3       20395   20521   20522   20396   0.
CQUAD4   21466   3       20401   20527   20521   20395   0.
CQUAD4   21472   3       20426   20552   20543   20417   0.
CQUAD4   21479   3       20416   20542   20543   20417   0.
CQUAD4   21480   3       20415   20541   20542   20416   0.
CQUAD4   21481   3       20414   20540   20541   20415   0.
CQUAD4   21482   3       20423   20549   20540   20414   0.
CQUAD4   21483   3       20422   20548   20549   20423   0.
CQUAD4   21484   3       20435   487     486     20434   0.
CQUAD4   21485   3       20436   488     487     20435   0.
CQUAD4   21486   3       20439   491     482     20430   0.
CQUAD4   21487   3       20440   492     491     20439   0.
CQUAD4   21488   3       20441   493     492     20440   0.
CQUAD4   21489   3       20431   483     484     20432   0.
CQUAD4   21490   3       20430   482     483     20431   0.
CQUAD4   21491   3       20447   497     485     20433   0.
CQUAD4   21492   3       20448   498     497     20447   0.
CQUAD4   21493   3       20449   499     498     20448   0.
CQUAD4   21494   3       20429   481     482     20430   0.
CQUAD4   21495   3       20428   480     481     20429   0.
CQUAD4   21496   3       20427   479     480     20428   0.
CQUAD4   21502   3       20025   1       170     20471   0.
CQUAD4   21503   3       20438   490     1       20025   0.
CQUAD4   21504   3       20437   489     490     20438   0.
CQUAD4   21505   3       20436   488     489     20437   0.
CQUAD4   21506   3       20446   496     488     20436   0.
CQUAD4   21509   3       20472   512     502     20452   0.
CQUAD4   21510   3       20473   513     512     20472   0.
CQUAD4   21511   3       20474   514     513     20473   0.
CQUAD4   21513   3       20442   494     495     20443   0.
CQUAD4   21514   3       20441   493     494     20442   0.
CQUAD4   21515   3       20454   504     493     20441   0.
CQUAD4   21516   3       20453   503     504     20454   0.
CQUAD4   21517   3       20452   502     503     20453   0.
CQUAD4   21518   3       20480   517     508     20458   0.
CQUAD4   21519   3       20481   518     517     20480   0.
CQUAD4   21520   3       20482   519     518     20481   0.
CQUAD4   21521   3       20451   501     502     20452   0.
CQUAD4   21522   3       20450   500     501     20451   0.
CQUAD4   21523   3       20449   499     500     20450   0.
CQUAD4   21524   3       20460   510     499     20449   0.
CQUAD4   21526   3       20458   508     509     20459   0.
CQUAD4   21527   3       20488   525     511     20461   0.
CQUAD4   21529   3       20490   527     526     20489   0.
CQUAD4   21530   3       20457   507     508     20458   0.
CQUAD4   21531   3       20456   506     507     20457   0.
CQUAD4   21532   3       20455   505     506     20456   0.
CQUAD4   21548   3       20511   535     522     20485   0.
CQUAD4   21549   3       20512   536     535     20511   0.
CQUAD4   21550   3       20513   537     536     20512   0.
CQUAD4   21552   3       20475   515     516     20476   0.
CQUAD4   21553   3       20474   514     515     20475   0.
CQUAD4   21554   3       20487   524     514     20474   0.
CQUAD4   21555   3       20486   523     524     20487   0.
CQUAD4   21556   3       20485   522     523     20486   0.
CQUAD4   21557   3       20519   540     530     20493   0.
CQUAD4   21558   3       20520   541     540     20519   0.
CQUAD4   21559   3       20521   542     541     20520   0.
CQUAD4   21560   3       20484   521     522     20485   0.
CQUAD4   21561   3       20483   520     521     20484   0.
CQUAD4   21562   3       20482   519     520     20483   0.
CQUAD4   21563   3       20495   532     519     20482   0.
CQUAD4   21564   3       20494   531     532     20495   0.
CQUAD4   21565   3       20493   530     531     20494   0.
CQUAD4   21566   3       20492   529     530     20493   0.
CQUAD4   21567   3       20491   528     529     20492   0.
CQUAD4   21568   3       20490   527     528     20491   0.
CQUAD4   21569   3       20497   534     527     20490   0.
CQUAD4   21570   3       20496   533     534     20497   0.
CQUAD4   21592   3       20546   553     545     20524   0.
CQUAD4   21593   3       20547   554     553     20546   0.
CQUAD4   21595   3       20514   538     539     20515   0.
CQUAD4   21596   3       20513   537     538     20514   0.
CQUAD4   21597   3       20526   547     537     20513   0.
CQUAD4   21598   3       20525   546     547     20526   0.
CQUAD4   21599   3       20524   545     546     20525   0.
CQUAD4   21600   3       20523   544     545     20524   0.
CQUAD4   21601   3       20522   543     544     20523   0.
CQUAD4   21602   3       20521   542     543     20522   0.
CQUAD4   21603   3       20527   548     542     20521   0.
CQUAD4   21609   3       20552   557     552     20543   0.
CQUAD4   21616   3       20542   551     552     20543   0.
CQUAD4   21617   3       20541   550     551     20542   0.
CQUAD4   21618   3       20540   549     550     20541   0.
CQUAD4   21619   3       20549   556     549     20540   0.
CQUAD4   21620   3       20548   555     556     20549   0.
CQUAD4   21621   3       10538   20553   20054   10546   0.
CQUAD4   21622   3       20553   20554   20180   20054   0.
CQUAD4   21623   3       20554   20555   20306   20180   0.
CQUAD4   21624   3       20555   20556   20432   20306   0.
CQUAD4   21625   3       20556   558     484     20432   0.
CQUAD4   21626   3       10553   20056   20557   10535   0.
CQUAD4   21627   3       20056   20182   20558   20557   0.
CQUAD4   21628   3       20182   20308   20559   20558   0.
CQUAD4   21629   3       20308   20434   20560   20559   0.
CQUAD4   21630   3       20434   486     559     20560   0.
CQUAD4   21631   3       10456   10554   20561   20034   0.
CQUAD4   21632   3       10554   10540   20562   20561   0.
CQUAD4   21633   3       10540   10535   20557   20562   0.
CQUAD4   21634   3       10535   10536   20563   20557   0.
CQUAD4   21635   3       10536   10537   20564   20563   0.
CQUAD4   21636   3       10537   10538   20553   20564   0.
CQUAD4   21637   3       10538   10539   20565   20553   0.
CQUAD4   21638   3       10539   10545   20566   20565   0.
CQUAD4   21639   3       10545   10682   20567   20566   0.
CQUAD4   21640   3       20034   20561   20568   20036   0.
CQUAD4   21641   3       20561   20562   20569   20568   0.
CQUAD4   21642   3       20562   20557   20558   20569   0.
CQUAD4   21643   3       20557   20563   20570   20558   0.
CQUAD4   21644   3       20563   20564   20571   20570   0.
CQUAD4   21645   3       20564   20553   20554   20571   0.
CQUAD4   21646   3       20553   20565   20572   20554   0.
CQUAD4   21647   3       20565   20566   20573   20572   0.
CQUAD4   21648   3       20566   20567   20574   20573   0.
CQUAD4   21649   3       20036   20568   20575   20038   0.
CQUAD4   21650   3       20568   20569   20576   20575   0.
CQUAD4   21651   3       20569   20558   20559   20576   0.
CQUAD4   21652   3       20558   20570   20577   20559   0.
CQUAD4   21653   3       20570   20571   20578   20577   0.
CQUAD4   21654   3       20571   20554   20555   20578   0.
CQUAD4   21655   3       20554   20572   20579   20555   0.
CQUAD4   21656   3       20572   20573   20580   20579   0.
CQUAD4   21657   3       20573   20574   20581   20580   0.
CQUAD4   21658   3       20038   20575   20582   20040   0.
CQUAD4   21659   3       20575   20576   20583   20582   0.
CQUAD4   21660   3       20576   20559   20560   20583   0.
CQUAD4   21661   3       20559   20577   20584   20560   0.
CQUAD4   21662   3       20577   20578   20585   20584   0.
CQUAD4   21663   3       20578   20555   20556   20585   0.
CQUAD4   21664   3       20555   20579   20586   20556   0.
CQUAD4   21665   3       20579   20580   20587   20586   0.
CQUAD4   21666   3       20580   20581   20588   20587   0.
CQUAD4   21667   3       20040   20582   560     126     0.
CQUAD4   21668   3       20582   20583   561     560     0.
CQUAD4   21669   3       20583   20560   559     561     0.
CQUAD4   21670   3       20560   20584   562     559     0.
CQUAD4   21671   3       20584   20585   563     562     0.
CQUAD4   21672   3       20585   20556   558     563     0.
CQUAD4   21673   3       20556   20586   564     558     0.
CQUAD4   21674   3       20586   20587   565     564     0.
CQUAD4   21675   3       20587   20588   566     565     0.
CQUAD4   21676   3       10614   20118   20589   10610   0.
CQUAD4   21677   3       20118   20244   20590   20589   0.
CQUAD4   21678   3       20244   20370   20591   20590   0.
CQUAD4   21679   3       20370   20496   20592   20591   0.
CQUAD4   21680   3       20496   533     567     20592   0.
CQUAD4   21681   3       10649   20149   20593   10650   0.
CQUAD4   21682   3       20149   20275   20594   20593   0.
CQUAD4   21683   3       20275   20401   20595   20594   0.
CQUAD4   21684   3       20401   20527   20596   20595   0.
CQUAD4   21685   3       20527   548     568     20596   0.
CQUAD4   21686   3       10670   10669   20597   20169   0.
CQUAD4   21687   3       20169   20597   20598   20295   0.
CQUAD4   21688   3       20295   20598   20599   20421   0.
CQUAD4   21689   3       20421   20599   20600   20547   0.
CQUAD4   21690   3       20547   20600   569     554     0.
CQUAD4   21691   3       10673   10684   20601   20170   0.
CQUAD4   21692   3       20170   20601   20602   20296   0.
CQUAD4   21693   3       20296   20602   20603   20422   0.
CQUAD4   21694   3       20422   20603   20604   20548   0.
CQUAD4   21695   3       20548   20604   570     555     0.
CQUAD4   21696   3       10681   10692   20605   20174   0.
CQUAD4   21697   3       20174   20605   20606   20300   0.
CQUAD4   21698   3       20300   20606   20607   20426   0.
CQUAD4   21699   3       20426   20607   20608   20552   0.
CQUAD4   21700   3       20552   20608   571     557     0.
CQUAD4   21706   3       10612   10611   20613   20614   0.
CQUAD4   21707   3       10611   10683   20615   20613   0.
CQUAD4   21708   3       10683   10610   20589   20615   0.
CQUAD4   21709   3       10610   10648   20616   20589   0.
CQUAD4   21710   3       10648   10647   20617   20616   0.
CQUAD4   21711   3       10647   10646   20618   20617   0.
CQUAD4   21712   3       10646   10644   20619   20618   0.
CQUAD4   21713   3       10644   10645   20620   20619   0.
CQUAD4   21714   3       10645   10650   20593   20620   0.
CQUAD4   21715   3       10650   10675   20621   20593   0.
CQUAD4   21716   3       10675   10676   20622   20621   0.
CQUAD4   21717   3       10676   10674   20623   20622   0.
CQUAD4   21718   3       10674   10677   20624   20623   0.
CQUAD4   21719   3       10677   10678   20625   20624   0.
CQUAD4   21720   3       10678   10669   20597   20625   0.
CQUAD4   21721   3       10669   10668   20626   20597   0.
CQUAD4   21722   3       10668   10667   20627   20626   0.
CQUAD4   21723   3       10667   10684   20601   20627   0.
CQUAD4   21724   3       10684   10697   20628   20601   0.
CQUAD4   21725   3       10697   10696   20629   20628   0.
CQUAD4   21726   3       10696   10693   20630   20629   0.
CQUAD4   21727   3       10693   10695   20631   20630   0.
CQUAD4   21728   3       10695   10694   20632   20631   0.
CQUAD4   21729   3       10694   10692   20605   20632   0.
CQUAD4   21730   3       10692   10688   20633   20605   0.
CQUAD4   21731   3       10688   10687   20634   20633   0.
CQUAD4   21732   3       10687   10689   20635   20634   0.
CQUAD4   21733   3       10689   10690   20636   20635   0.
CQUAD4   21734   3       10690   10691   20637   20636   0.
CQUAD4   21735   3       10691   10685   20609   20637   0.
CQUAD4   21738   3       10686   10233   20041   20639   0.
CQUAD4   21739   3       20614   20613   20640   20641   0.
CQUAD4   21740   3       20613   20615   20642   20640   0.
CQUAD4   21741   3       20615   20589   20590   20642   0.
CQUAD4   21742   3       20589   20616   20643   20590   0.
CQUAD4   21743   3       20616   20617   20644   20643   0.
CQUAD4   21744   3       20617   20618   20645   20644   0.
CQUAD4   21745   3       20618   20619   20646   20645   0.
CQUAD4   21746   3       20619   20620   20647   20646   0.
CQUAD4   21747   3       20620   20593   20594   20647   0.
CQUAD4   21748   3       20593   20621   20648   20594   0.
CQUAD4   21749   3       20621   20622   20649   20648   0.
CQUAD4   21750   3       20622   20623   20650   20649   0.
CQUAD4   21751   3       20623   20624   20651   20650   0.
CQUAD4   21752   3       20624   20625   20652   20651   0.
CQUAD4   21753   3       20625   20597   20598   20652   0.
CQUAD4   21754   3       20597   20626   20653   20598   0.
CQUAD4   21755   3       20626   20627   20654   20653   0.
CQUAD4   21756   3       20627   20601   20602   20654   0.
CQUAD4   21757   3       20601   20628   20655   20602   0.
CQUAD4   21758   3       20628   20629   20656   20655   0.
CQUAD4   21759   3       20629   20630   20657   20656   0.
CQUAD4   21760   3       20630   20631   20658   20657   0.
CQUAD4   21761   3       20631   20632   20659   20658   0.
CQUAD4   21762   3       20632   20605   20606   20659   0.
CQUAD4   21763   3       20605   20633   20660   20606   0.
CQUAD4   21764   3       20633   20634   20661   20660   0.
CQUAD4   21765   3       20634   20635   20662   20661   0.
CQUAD4   21766   3       20635   20636   20663   20662   0.
CQUAD4   21767   3       20636   20637   20664   20663   0.
CQUAD4   21768   3       20637   20609   20610   20664   0.
CQUAD4   21771   3       20639   20041   20043   20666   0.
CQUAD4   21772   3       20641   20640   20667   20668   0.
CQUAD4   21773   3       20640   20642   20669   20667   0.
CQUAD4   21774   3       20642   20590   20591   20669   0.
CQUAD4   21775   3       20590   20643   20670   20591   0.
CQUAD4   21776   3       20643   20644   20671   20670   0.
CQUAD4   21777   3       20644   20645   20672   20671   0.
CQUAD4   21778   3       20645   20646   20673   20672   0.
CQUAD4   21779   3       20646   20647   20674   20673   0.
CQUAD4   21780   3       20647   20594   20595   20674   0.
CQUAD4   21781   3       20594   20648   20675   20595   0.
CQUAD4   21782   3       20648   20649   20676   20675   0.
CQUAD4   21783   3       20649   20650   20677   20676   0.
CQUAD4   21784   3       20650   20651   20678   20677   0.
CQUAD4   21785   3       20651   20652   20679   20678   0.
CQUAD4   21786   3       20652   20598   20599   20679   0.
CQUAD4   21787   3       20598   20653   20680   20599   0.
CQUAD4   21788   3       20653   20654   20681   20680   0.
CQUAD4   21789   3       20654   20602   20603   20681   0.
CQUAD4   21790   3       20602   20655   20682   20603   0.
CQUAD4   21791   3       20655   20656   20683   20682   0.
CQUAD4   21792   3       20656   20657   20684   20683   0.
CQUAD4   21793   3       20657   20658   20685   20684   0.
CQUAD4   21794   3       20658   20659   20686   20685   0.
CQUAD4   21795   3       20659   20606   20607   20686   0.
CQUAD4   21796   3       20606   20660   20687   20607   0.
CQUAD4   21797   3       20660   20661   20688   20687   0.
CQUAD4   21798   3       20661   20662   20689   20688   0.
CQUAD4   21799   3       20662   20663   20690   20689   0.
CQUAD4   21800   3       20663   20664   20691   20690   0.
CQUAD4   21801   3       20664   20610   20611   20691   0.
CQUAD4   21804   3       20666   20043   20045   20693   0.
CQUAD4   21805   3       20668   20667   20694   20695   0.
CQUAD4   21806   3       20667   20669   20696   20694   0.
CQUAD4   21807   3       20669   20591   20592   20696   0.
CQUAD4   21808   3       20591   20670   20697   20592   0.
CQUAD4   21809   3       20670   20671   20698   20697   0.
CQUAD4   21810   3       20671   20672   20699   20698   0.
CQUAD4   21811   3       20672   20673   20700   20699   0.
CQUAD4   21812   3       20673   20674   20701   20700   0.
CQUAD4   21813   3       20674   20595   20596   20701   0.
CQUAD4   21814   3       20595   20675   20702   20596   0.
CQUAD4   21815   3       20675   20676   20703   20702   0.
CQUAD4   21816   3       20676   20677   20704   20703   0.
CQUAD4   21817   3       20677   20678   20705   20704   0.
CQUAD4   21818   3       20678   20679   20706   20705   0.
CQUAD4   21819   3       20679   20599   20600   20706   0.
CQUAD4   21820   3       20599   20680   20707   20600   0.
CQUAD4   21821   3       20680   20681   20708   20707   0.
CQUAD4   21822   3       20681   20603   20604   20708   0.
CQUAD4   21823   3       20603   20682   20709   20604   0.
CQUAD4   21824   3       20682   20683   20710   20709   0.
CQUAD4   21825   3       20683   20684   20711   20710   0.
CQUAD4   21826   3       20684   20685   20712   20711   0.
CQUAD4   21827   3       20685   20686   20713   20712   0.
CQUAD4   21828   3       20686   20607   20608   20713   0.
CQUAD4   21829   3       20607   20687   20714   20608   0.
CQUAD4   21830   3       20687   20688   20715   20714   0.
CQUAD4   21831   3       20688   20689   20716   20715   0.
CQUAD4   21832   3       20689   20690   20717   20716   0.
CQUAD4   21833   3       20690   20691   20718   20717   0.
CQUAD4   21834   3       20691   20611   20612   20718   0.
CQUAD4   21837   3       20693   20045   20047   20720   0.
CQUAD4   21838   3       20695   20694   573     574     0.
CQUAD4   21839   3       20694   20696   575     573     0.
CQUAD4   21840   3       20696   20592   567     575     0.
CQUAD4   21841   3       20592   20697   576     567     0.
CQUAD4   21842   3       20697   20698   577     576     0.
CQUAD4   21843   3       20698   20699   578     577     0.
CQUAD4   21844   3       20699   20700   579     578     0.
CQUAD4   21845   3       20700   20701   580     579     0.
CQUAD4   21846   3       20701   20596   568     580     0.
CQUAD4   21847   3       20596   20702   581     568     0.
CQUAD4   21848   3       20702   20703   582     581     0.
CQUAD4   21849   3       20703   20704   583     582     0.
CQUAD4   21850   3       20704   20705   584     583     0.
CQUAD4   21851   3       20705   20706   585     584     0.
CQUAD4   21852   3       20706   20600   569     585     0.
CQUAD4   21853   3       20600   20707   586     569     0.
CQUAD4   21854   3       20707   20708   587     586     0.
CQUAD4   21855   3       20708   20604   570     587     0.
CQUAD4   21856   3       20604   20709   588     570     0.
CQUAD4   21857   3       20709   20710   589     588     0.
CQUAD4   21858   3       20710   20711   590     589     0.
CQUAD4   21859   3       20711   20712   591     590     0.
CQUAD4   21860   3       20712   20713   592     591     0.
CQUAD4   21861   3       20713   20608   571     592     0.
CQUAD4   21862   3       20608   20714   593     571     0.
CQUAD4   21863   3       20714   20715   594     593     0.
CQUAD4   21864   3       20715   20716   595     594     0.
CQUAD4   21865   3       20716   20717   596     595     0.
CQUAD4   21866   3       20717   20718   597     596     0.
CQUAD4   21867   3       20718   20612   572     597     0.
CQUAD4   21870   3       20720   20047   134     598     0.
CQUAD4   21871   3       10716   20729   20728   10717   0.
CQUAD4   21872   3       10715   20730   20729   10716   0.
CQUAD4   21873   3       10724   20733   20724   10705   0.
CQUAD4   21874   3       10723   20734   20733   10724   0.
CQUAD4   21875   3       10722   20735   20734   10723   0.
CQUAD4   21876   3       10711   20725   20726   10710   0.
CQUAD4   21877   3       10705   20724   20725   10711   0.
CQUAD4   21881   3       10706   20723   20724   10705   0.
CQUAD4   21882   3       10707   20722   20723   10706   0.
CQUAD4   21884   3       10747   20756   20738   10719   0.
CQUAD4   21885   3       10746   20757   20756   10747   0.
CQUAD4   21886   3       10745   20758   20757   10746   0.
CQUAD4   21887   3       10749   20764   20055   10548   0.
CQUAD4   21888   3       10748   20765   20764   10749   0.
CQUAD4   21889   3       10544   20049   20765   10748   0.
CQUAD4   21890   3       10713   20732   20049   10544   0.
CQUAD4   21891   3       10714   20731   20732   10713   0.
CQUAD4   21892   3       10715   20730   20731   10714   0.
CQUAD4   21893   3       10725   20740   20730   10715   0.
CQUAD4   21894   3       10726   20739   20740   10725   0.
CQUAD4   21895   3       10719   20738   20739   10726   0.
CQUAD4   21896   3       10757   20766   20746   10727   0.
CQUAD4   21897   3       10756   20767   20766   10757   0.
CQUAD4   21898   3       10755   20768   20767   10756   0.
CQUAD4   21899   3       10720   20737   20738   10719   0.
CQUAD4   21900   3       10721   20736   20737   10720   0.
CQUAD4   21901   3       10722   20735   20736   10721   0.
CQUAD4   21902   3       10733   20748   20735   10722   0.
CQUAD4   21903   3       10734   20747   20748   10733   0.
CQUAD4   21904   3       10727   20746   20747   10734   0.
CQUAD4   21908   3       10728   20745   20746   10727   0.
CQUAD4   21920   3       10785   20792   20761   10742   0.
CQUAD4   21922   3       10783   20794   20793   10784   0.
CQUAD4   21923   3       10750   20763   20055   10548   0.
CQUAD4   21924   3       10751   20762   20763   10750   0.
CQUAD4   21925   3       10742   20761   20762   10751   0.
CQUAD4   21926   3       10791   20797   20771   10752   0.
CQUAD4   21927   3       10790   20798   20797   10791   0.
CQUAD4   21928   3       10789   20799   20798   10790   0.
CQUAD4   21929   3       10743   20760   20761   10742   0.
CQUAD4   21930   3       10744   20759   20760   10743   0.
CQUAD4   21931   3       10745   20758   20759   10744   0.
CQUAD4   21932   3       10758   20773   20758   10745   0.
CQUAD4   21933   3       10759   20772   20773   10758   0.
CQUAD4   21934   3       10752   20771   20772   10759   0.
CQUAD4   21935   3       10799   20805   20779   10760   0.
CQUAD4   21936   3       10798   20806   20805   10799   0.
CQUAD4   21937   3       10797   20807   20806   10798   0.
CQUAD4   21938   3       10753   20770   20771   10752   0.
CQUAD4   21939   3       10754   20769   20770   10753   0.
CQUAD4   21940   3       10755   20768   20769   10754   0.
CQUAD4   21941   3       10766   20781   20768   10755   0.
CQUAD4   21942   3       10767   20780   20781   10766   0.
CQUAD4   21943   3       10760   20779   20780   10767   0.
CQUAD4   21944   3       10807   20813   20787   10768   0.
CQUAD4   21945   3       10806   20814   20813   10807   0.
CQUAD4   21946   3       10805   20815   20814   10806   0.
CQUAD4   21947   3       10761   20778   20779   10760   0.
CQUAD4   21948   3       10762   20777   20778   10761   0.
CQUAD4   21949   3       10763   20776   20777   10762   0.
CQUAD4   21950   3       10774   20789   20776   10763   0.
CQUAD4   21951   3       10775   20788   20789   10774   0.
CQUAD4   21952   3       10768   20787   20788   10775   0.
CQUAD4   21953   3       10769   20786   20787   10768   0.
CQUAD4   21958   3       10822   20822   20802   10786   0.
CQUAD4   21959   3       10821   20823   20822   10822   0.
CQUAD4   21960   3       10820   20824   20823   10821   0.
CQUAD4   21961   3       10824   20830   20083   10577   0.
CQUAD4   21962   3       10823   20831   20830   10824   0.
CQUAD4   21963   3       10574   20077   20831   10823   0.
CQUAD4   21964   3       10781   20796   20077   10574   0.
CQUAD4   21965   3       10782   20795   20796   10781   0.
CQUAD4   21966   3       10783   20794   20795   10782   0.
CQUAD4   21967   3       10792   20804   20794   10783   0.
CQUAD4   21968   3       10793   20803   20804   10792   0.
CQUAD4   21969   3       10786   20802   20803   10793   0.
CQUAD4   21970   3       10832   20832   20810   10794   0.
CQUAD4   21971   3       10831   20833   20832   10832   0.
CQUAD4   21972   3       10830   20834   20833   10831   0.
CQUAD4   21973   3       10787   20801   20802   10786   0.
CQUAD4   21974   3       10788   20800   20801   10787   0.
CQUAD4   21975   3       10789   20799   20800   10788   0.
CQUAD4   21976   3       10800   20812   20799   10789   0.
CQUAD4   21977   3       10801   20811   20812   10800   0.
CQUAD4   21978   3       10794   20810   20811   10801   0.
CQUAD4   21979   3       10839   20840   20818   10802   0.
CQUAD4   21980   3       10838   20841   20840   10839   0.
CQUAD4   21981   3       10795   20809   20810   10794   0.
CQUAD4   21982   3       10796   20808   20809   10795   0.
CQUAD4   21983   3       10797   20807   20808   10796   0.
CQUAD4   21984   3       10808   20820   20807   10797   0.
CQUAD4   21985   3       10809   20819   20820   10808   0.
CQUAD4   21986   3       10802   20818   20819   10809   0.
CQUAD4   21987   3       10803   20817   20818   10802   0.
CQUAD4   21988   3       10804   20816   20817   10803   0.
CQUAD4   21989   3       10805   20815   20816   10804   0.
CQUAD4   21990   3       10815   20821   20815   10805   0.
CQUAD4   21991   3       10848   20844   20827   10817   0.
CQUAD4   21992   3       10847   20845   20844   10848   0.
CQUAD4   21993   3       10825   20829   20083   10577   0.
CQUAD4   21995   3       10817   20827   20828   10826   0.
CQUAD4   21996   3       10849   20846   20837   10827   0.
CQUAD4   21997   3       10818   20826   20827   10817   0.
CQUAD4   21998   3       10819   20825   20826   10818   0.
CQUAD4   21999   3       10820   20824   20825   10819   0.
CQUAD4   22000   3       10833   20839   20824   10820   0.
CQUAD4   22001   3       10834   20838   20839   10833   0.
CQUAD4   22002   3       10827   20837   20838   10834   0.
CQUAD4   22003   3       10828   20836   20837   10827   0.
CQUAD4   22004   3       10829   20835   20836   10828   0.
CQUAD4   22005   3       10830   20834   20835   10829   0.
CQUAD4   22006   3       10840   20843   20834   10830   0.
CQUAD4   22007   3       10841   20842   20843   10840   0.
CQUAD4   22008   3       20729   20855   20854   20728   0.
CQUAD4   22009   3       20730   20856   20855   20729   0.
CQUAD4   22010   3       20733   20859   20850   20724   0.
CQUAD4   22011   3       20734   20860   20859   20733   0.
CQUAD4   22012   3       20735   20861   20860   20734   0.
CQUAD4   22013   3       20725   20851   20852   20726   0.
CQUAD4   22014   3       20724   20850   20851   20725   0.
CQUAD4   22018   3       20723   20849   20850   20724   0.
CQUAD4   22019   3       20722   20848   20849   20723   0.
CQUAD4   22021   3       20756   20882   20864   20738   0.
CQUAD4   22022   3       20757   20883   20882   20756   0.
CQUAD4   22023   3       20758   20884   20883   20757   0.
CQUAD4   22024   3       20764   20890   20181   20055   0.
CQUAD4   22025   3       20765   20891   20890   20764   0.
CQUAD4   22026   3       20049   20175   20891   20765   0.
CQUAD4   22027   3       20732   20858   20175   20049   0.
CQUAD4   22028   3       20731   20857   20858   20732   0.
CQUAD4   22029   3       20730   20856   20857   20731   0.
CQUAD4   22030   3       20740   20866   20856   20730   0.
CQUAD4   22031   3       20739   20865   20866   20740   0.
CQUAD4   22032   3       20738   20864   20865   20739   0.
CQUAD4   22033   3       20766   20892   20872   20746   0.
CQUAD4   22034   3       20767   20893   20892   20766   0.
CQUAD4   22035   3       20768   20894   20893   20767   0.
CQUAD4   22036   3       20737   20863   20864   20738   0.
CQUAD4   22037   3       20736   20862   20863   20737   0.
CQUAD4   22038   3       20735   20861   20862   20736   0.
CQUAD4   22039   3       20748   20874   20861   20735   0.
CQUAD4   22040   3       20747   20873   20874   20748   0.
CQUAD4   22041   3       20746   20872   20873   20747   0.
CQUAD4   22045   3       20745   20871   20872   20746   0.
CQUAD4   22057   3       20792   20918   20887   20761   0.
CQUAD4   22059   3       20794   20920   20919   20793   0.
CQUAD4   22060   3       20763   20889   20181   20055   0.
CQUAD4   22061   3       20762   20888   20889   20763   0.
CQUAD4   22062   3       20761   20887   20888   20762   0.
CQUAD4   22063   3       20797   20923   20897   20771   0.
CQUAD4   22064   3       20798   20924   20923   20797   0.
CQUAD4   22065   3       20799   20925   20924   20798   0.
CQUAD4   22066   3       20760   20886   20887   20761   0.
CQUAD4   22067   3       20759   20885   20886   20760   0.
CQUAD4   22068   3       20758   20884   20885   20759   0.
CQUAD4   22069   3       20773   20899   20884   20758   0.
CQUAD4   22070   3       20772   20898   20899   20773   0.
CQUAD4   22071   3       20771   20897   20898   20772   0.
CQUAD4   22072   3       20805   20931   20905   20779   0.
CQUAD4   22073   3       20806   20932   20931   20805   0.
CQUAD4   22074   3       20807   20933   20932   20806   0.
CQUAD4   22075   3       20770   20896   20897   20771   0.
CQUAD4   22076   3       20769   20895   20896   20770   0.
CQUAD4   22077   3       20768   20894   20895   20769   0.
CQUAD4   22078   3       20781   20907   20894   20768   0.
CQUAD4   22079   3       20780   20906   20907   20781   0.
CQUAD4   22080   3       20779   20905   20906   20780   0.
CQUAD4   22081   3       20813   20939   20913   20787   0.
CQUAD4   22082   3       20814   20940   20939   20813   0.
CQUAD4   22083   3       20815   20941   20940   20814   0.
CQUAD4   22084   3       20778   20904   20905   20779   0.
CQUAD4   22085   3       20777   20903   20904   20778   0.
CQUAD4   22086   3       20776   20902   20903   20777   0.
CQUAD4   22087   3       20789   20915   20902   20776   0.
CQUAD4   22088   3       20788   20914   20915   20789   0.
CQUAD4   22089   3       20787   20913   20914   20788   0.
CQUAD4   22090   3       20786   20912   20913   20787   0.
CQUAD4   22095   3       20822   20948   20928   20802   0.
CQUAD4   22096   3       20823   20949   20948   20822   0.
CQUAD4   22097   3       20824   20950   20949   20823   0.
CQUAD4   22098   3       20830   20956   20209   20083   0.
CQUAD4   22099   3       20831   20957   20956   20830   0.
CQUAD4   22100   3       20077   20203   20957   20831   0.
CQUAD4   22101   3       20796   20922   20203   20077   0.
CQUAD4   22102   3       20795   20921   20922   20796   0.
CQUAD4   22103   3       20794   20920   20921   20795   0.
CQUAD4   22104   3       20804   20930   20920   20794   0.
CQUAD4   22105   3       20803   20929   20930   20804   0.
CQUAD4   22106   3       20802   20928   20929   20803   0.
CQUAD4   22107   3       20832   20958   20936   20810   0.
CQUAD4   22108   3       20833   20959   20958   20832   0.
CQUAD4   22109   3       20834   20960   20959   20833   0.
CQUAD4   22110   3       20801   20927   20928   20802   0.
CQUAD4   22111   3       20800   20926   20927   20801   0.
CQUAD4   22112   3       20799   20925   20926   20800   0.
CQUAD4   22113   3       20812   20938   20925   20799   0.
CQUAD4   22114   3       20811   20937   20938   20812   0.
CQUAD4   22115   3       20810   20936   20937   20811   0.
CQUAD4   22116   3       20840   20966   20944   20818   0.
CQUAD4   22117   3       20841   20967   20966   20840   0.
CQUAD4   22118   3       20809   20935   20936   20810   0.
CQUAD4   22119   3       20808   20934   20935   20809   0.
CQUAD4   22120   3       20807   20933   20934   20808   0.
CQUAD4   22121   3       20820   20946   20933   20807   0.
CQUAD4   22122   3       20819   20945   20946   20820   0.
CQUAD4   22123   3       20818   20944   20945   20819   0.
CQUAD4   22124   3       20817   20943   20944   20818   0.
CQUAD4   22125   3       20816   20942   20943   20817   0.
CQUAD4   22126   3       20815   20941   20942   20816   0.
CQUAD4   22127   3       20821   20947   20941   20815   0.
CQUAD4   22128   3       20844   20970   20953   20827   0.
CQUAD4   22129   3       20845   20971   20970   20844   0.
CQUAD4   22130   3       20829   20955   20209   20083   0.
CQUAD4   22132   3       20827   20953   20954   20828   0.
CQUAD4   22133   3       20846   20972   20963   20837   0.
CQUAD4   22134   3       20826   20952   20953   20827   0.
CQUAD4   22135   3       20825   20951   20952   20826   0.
CQUAD4   22136   3       20824   20950   20951   20825   0.
CQUAD4   22137   3       20839   20965   20950   20824   0.
CQUAD4   22138   3       20838   20964   20965   20839   0.
CQUAD4   22139   3       20837   20963   20964   20838   0.
CQUAD4   22140   3       20836   20962   20963   20837   0.
CQUAD4   22141   3       20835   20961   20962   20836   0.
CQUAD4   22142   3       20834   20960   20961   20835   0.
CQUAD4   22143   3       20843   20969   20960   20834   0.
CQUAD4   22144   3       20842   20968   20969   20843   0.
CQUAD4   22145   3       20855   20981   20980   20854   0.
CQUAD4   22146   3       20856   20982   20981   20855   0.
CQUAD4   22147   3       20859   20985   20976   20850   0.
CQUAD4   22148   3       20860   20986   20985   20859   0.
CQUAD4   22149   3       20861   20987   20986   20860   0.
CQUAD4   22150   3       20851   20977   20978   20852   0.
CQUAD4   22151   3       20850   20976   20977   20851   0.
CQUAD4   22155   3       20849   20975   20976   20850   0.
CQUAD4   22156   3       20848   20974   20975   20849   0.
CQUAD4   22158   3       20882   21008   20990   20864   0.
CQUAD4   22159   3       20883   21009   21008   20882   0.
CQUAD4   22160   3       20884   21010   21009   20883   0.
CQUAD4   22161   3       20890   21016   20307   20181   0.
CQUAD4   22162   3       20891   21017   21016   20890   0.
CQUAD4   22163   3       20175   20301   21017   20891   0.
CQUAD4   22164   3       20858   20984   20301   20175   0.
CQUAD4   22165   3       20857   20983   20984   20858   0.
CQUAD4   22166   3       20856   20982   20983   20857   0.
CQUAD4   22167   3       20866   20992   20982   20856   0.
CQUAD4   22168   3       20865   20991   20992   20866   0.
CQUAD4   22169   3       20864   20990   20991   20865   0.
CQUAD4   22170   3       20892   21018   20998   20872   0.
CQUAD4   22171   3       20893   21019   21018   20892   0.
CQUAD4   22172   3       20894   21020   21019   20893   0.
CQUAD4   22173   3       20863   20989   20990   20864   0.
CQUAD4   22174   3       20862   20988   20989   20863   0.
CQUAD4   22175   3       20861   20987   20988   20862   0.
CQUAD4   22176   3       20874   21000   20987   20861   0.
CQUAD4   22177   3       20873   20999   21000   20874   0.
CQUAD4   22178   3       20872   20998   20999   20873   0.
CQUAD4   22182   3       20871   20997   20998   20872   0.
CQUAD4   22194   3       20918   21044   21013   20887   0.
CQUAD4   22196   3       20920   21046   21045   20919   0.
CQUAD4   22197   3       20889   21015   20307   20181   0.
CQUAD4   22198   3       20888   21014   21015   20889   0.
CQUAD4   22199   3       20887   21013   21014   20888   0.
CQUAD4   22200   3       20923   21049   21023   20897   0.
CQUAD4   22201   3       20924   21050   21049   20923   0.
CQUAD4   22202   3       20925   21051   21050   20924   0.
CQUAD4   22203   3       20886   21012   21013   20887   0.
CQUAD4   22204   3       20885   21011   21012   20886   0.
CQUAD4   22205   3       20884   21010   21011   20885   0.
CQUAD4   22206   3       20899   21025   21010   20884   0.
CQUAD4   22207   3       20898   21024   21025   20899   0.
CQUAD4   22208   3       20897   21023   21024   20898   0.
CQUAD4   22209   3       20931   21057   21031   20905   0.
CQUAD4   22210   3       20932   21058   21057   20931   0.
CQUAD4   22211   3       20933   21059   21058   20932   0.
CQUAD4   22212   3       20896   21022   21023   20897   0.
CQUAD4   22213   3       20895   21021   21022   20896   0.
CQUAD4   22214   3       20894   21020   21021   20895   0.
CQUAD4   22215   3       20907   21033   21020   20894   0.
CQUAD4   22216   3       20906   21032   21033   20907   0.
CQUAD4   22217   3       20905   21031   21032   20906   0.
CQUAD4   22218   3       20939   21065   21039   20913   0.
CQUAD4   22219   3       20940   21066   21065   20939   0.
CQUAD4   22220   3       20941   21067   21066   20940   0.
CQUAD4   22221   3       20904   21030   21031   20905   0.
CQUAD4   22222   3       20903   21029   21030   20904   0.
CQUAD4   22223   3       20902   21028   21029   20903   0.
CQUAD4   22224   3       20915   21041   21028   20902   0.
CQUAD4   22225   3       20914   21040   21041   20915   0.
CQUAD4   22226   3       20913   21039   21040   20914   0.
CQUAD4   22227   3       20912   21038   21039   20913   0.
CQUAD4   22232   3       20948   21074   21054   20928   0.
CQUAD4   22233   3       20949   21075   21074   20948   0.
CQUAD4   22234   3       20950   21076   21075   20949   0.
CQUAD4   22235   3       20956   21082   20335   20209   0.
CQUAD4   22236   3       20957   21083   21082   20956   0.
CQUAD4   22237   3       20203   20329   21083   20957   0.
CQUAD4   22238   3       20922   21048   20329   20203   0.
CQUAD4   22239   3       20921   21047   21048   20922   0.
CQUAD4   22240   3       20920   21046   21047   20921   0.
CQUAD4   22241   3       20930   21056   21046   20920   0.
CQUAD4   22242   3       20929   21055   21056   20930   0.
CQUAD4   22243   3       20928   21054   21055   20929   0.
CQUAD4   22244   3       20958   21084   21062   20936   0.
CQUAD4   22245   3       20959   21085   21084   20958   0.
CQUAD4   22246   3       20960   21086   21085   20959   0.
CQUAD4   22247   3       20927   21053   21054   20928   0.
CQUAD4   22248   3       20926   21052   21053   20927   0.
CQUAD4   22249   3       20925   21051   21052   20926   0.
CQUAD4   22250   3       20938   21064   21051   20925   0.
CQUAD4   22251   3       20937   21063   21064   20938   0.
CQUAD4   22252   3       20936   21062   21063   20937   0.
CQUAD4   22253   3       20966   21092   21070   20944   0.
CQUAD4   22254   3       20967   21093   21092   20966   0.
CQUAD4   22255   3       20935   21061   21062   20936   0.
CQUAD4   22256   3       20934   21060   21061   20935   0.
CQUAD4   22257   3       20933   21059   21060   20934   0.
CQUAD4   22258   3       20946   21072   21059   20933   0.
CQUAD4   22259   3       20945   21071   21072   20946   0.
CQUAD4   22260   3       20944   21070   21071   20945   0.
CQUAD4   22261   3       20943   21069   21070   20944   0.
CQUAD4   22262   3       20942   21068   21069   20943   0.
CQUAD4   22263   3       20941   21067   21068   20942   0.
CQUAD4   22264   3       20947   21073   21067   20941   0.
CQUAD4   22265   3       20970   21096   21079   20953   0.
CQUAD4   22266   3       20971   21097   21096   20970   0.
CQUAD4   22267   3       20955   21081   20335   20209   0.
CQUAD4   22269   3       20953   21079   21080   20954   0.
CQUAD4   22270   3       20972   21098   21089   20963   0.
CQUAD4   22271   3       20952   21078   21079   20953   0.
CQUAD4   22272   3       20951   21077   21078   20952   0.
CQUAD4   22273   3       20950   21076   21077   20951   0.
CQUAD4   22274   3       20965   21091   21076   20950   0.
CQUAD4   22275   3       20964   21090   21091   20965   0.
CQUAD4   22276   3       20963   21089   21090   20964   0.
CQUAD4   22277   3       20962   21088   21089   20963   0.
CQUAD4   22278   3       20961   21087   21088   20962   0.
CQUAD4   22279   3       20960   21086   21087   20961   0.
CQUAD4   22280   3       20969   21095   21086   20960   0.
CQUAD4   22281   3       20968   21094   21095   20969   0.
CQUAD4   22282   3       20981   21107   21106   20980   0.
CQUAD4   22283   3       20982   21108   21107   20981   0.
CQUAD4   22284   3       20985   21111   21102   20976   0.
CQUAD4   22285   3       20986   21112   21111   20985   0.
CQUAD4   22286   3       20987   21113   21112   20986   0.
CQUAD4   22287   3       20977   21103   21104   20978   0.
CQUAD4   22288   3       20976   21102   21103   20977   0.
CQUAD4   22292   3       20975   21101   21102   20976   0.
CQUAD4   22293   3       20974   21100   21101   20975   0.
CQUAD4   22295   3       21008   21134   21116   20990   0.
CQUAD4   22296   3       21009   21135   21134   21008   0.
CQUAD4   22297   3       21010   21136   21135   21009   0.
CQUAD4   22298   3       21016   21142   20433   20307   0.
CQUAD4   22299   3       21017   21143   21142   21016   0.
CQUAD4   22300   3       20301   20427   21143   21017   0.
CQUAD4   22301   3       20984   21110   20427   20301   0.
CQUAD4   22302   3       20983   21109   21110   20984   0.
CQUAD4   22303   3       20982   21108   21109   20983   0.
CQUAD4   22304   3       20992   21118   21108   20982   0.
CQUAD4   22305   3       20991   21117   21118   20992   0.
CQUAD4   22306   3       20990   21116   21117   20991   0.
CQUAD4   22307   3       21018   21144   21124   20998   0.
CQUAD4   22308   3       21019   21145   21144   21018   0.
CQUAD4   22309   3       21020   21146   21145   21019   0.
CQUAD4   22310   3       20989   21115   21116   20990   0.
CQUAD4   22311   3       20988   21114   21115   20989   0.
CQUAD4   22312   3       20987   21113   21114   20988   0.
CQUAD4   22313   3       21000   21126   21113   20987   0.
CQUAD4   22314   3       20999   21125   21126   21000   0.
CQUAD4   22315   3       20998   21124   21125   20999   0.
CQUAD4   22319   3       20997   21123   21124   20998   0.
CQUAD4   22331   3       21044   21170   21139   21013   0.
CQUAD4   22333   3       21046   21172   21171   21045   0.
CQUAD4   22334   3       21015   21141   20433   20307   0.
CQUAD4   22335   3       21014   21140   21141   21015   0.
CQUAD4   22336   3       21013   21139   21140   21014   0.
CQUAD4   22337   3       21049   21175   21149   21023   0.
CQUAD4   22338   3       21050   21176   21175   21049   0.
CQUAD4   22339   3       21051   21177   21176   21050   0.
CQUAD4   22340   3       21012   21138   21139   21013   0.
CQUAD4   22341   3       21011   21137   21138   21012   0.
CQUAD4   22342   3       21010   21136   21137   21011   0.
CQUAD4   22343   3       21025   21151   21136   21010   0.
CQUAD4   22344   3       21024   21150   21151   21025   0.
CQUAD4   22345   3       21023   21149   21150   21024   0.
CQUAD4   22346   3       21057   21183   21157   21031   0.
CQUAD4   22347   3       21058   21184   21183   21057   0.
CQUAD4   22348   3       21059   21185   21184   21058   0.
CQUAD4   22349   3       21022   21148   21149   21023   0.
CQUAD4   22350   3       21021   21147   21148   21022   0.
CQUAD4   22351   3       21020   21146   21147   21021   0.
CQUAD4   22352   3       21033   21159   21146   21020   0.
CQUAD4   22353   3       21032   21158   21159   21033   0.
CQUAD4   22354   3       21031   21157   21158   21032   0.
CQUAD4   22355   3       21065   21191   21165   21039   0.
CQUAD4   22356   3       21066   21192   21191   21065   0.
CQUAD4   22357   3       21067   21193   21192   21066   0.
CQUAD4   22358   3       21030   21156   21157   21031   0.
CQUAD4   22359   3       21029   21155   21156   21030   0.
CQUAD4   22360   3       21028   21154   21155   21029   0.
CQUAD4   22361   3       21041   21167   21154   21028   0.
CQUAD4   22362   3       21040   21166   21167   21041   0.
CQUAD4   22363   3       21039   21165   21166   21040   0.
CQUAD4   22364   3       21038   21164   21165   21039   0.
CQUAD4   22369   3       21074   21200   21180   21054   0.
CQUAD4   22370   3       21075   21201   21200   21074   0.
CQUAD4   22371   3       21076   21202   21201   21075   0.
CQUAD4   22372   3       21082   21208   20461   20335   0.
CQUAD4   22373   3       21083   21209   21208   21082   0.
CQUAD4   22374   3       20329   20455   21209   21083   0.
CQUAD4   22375   3       21048   21174   20455   20329   0.
CQUAD4   22376   3       21047   21173   21174   21048   0.
CQUAD4   22377   3       21046   21172   21173   21047   0.
CQUAD4   22378   3       21056   21182   21172   21046   0.
CQUAD4   22379   3       21055   21181   21182   21056   0.
CQUAD4   22380   3       21054   21180   21181   21055   0.
CQUAD4   22381   3       21084   21210   21188   21062   0.
CQUAD4   22382   3       21085   21211   21210   21084   0.
CQUAD4   22383   3       21086   21212   21211   21085   0.
CQUAD4   22384   3       21053   21179   21180   21054   0.
CQUAD4   22385   3       21052   21178   21179   21053   0.
CQUAD4   22386   3       21051   21177   21178   21052   0.
CQUAD4   22387   3       21064   21190   21177   21051   0.
CQUAD4   22388   3       21063   21189   21190   21064   0.
CQUAD4   22389   3       21062   21188   21189   21063   0.
CQUAD4   22390   3       21092   21218   21196   21070   0.
CQUAD4   22391   3       21093   21219   21218   21092   0.
CQUAD4   22392   3       21061   21187   21188   21062   0.
CQUAD4   22393   3       21060   21186   21187   21061   0.
CQUAD4   22394   3       21059   21185   21186   21060   0.
CQUAD4   22395   3       21072   21198   21185   21059   0.
CQUAD4   22396   3       21071   21197   21198   21072   0.
CQUAD4   22397   3       21070   21196   21197   21071   0.
CQUAD4   22398   3       21069   21195   21196   21070   0.
CQUAD4   22399   3       21068   21194   21195   21069   0.
CQUAD4   22400   3       21067   21193   21194   21068   0.
CQUAD4   22401   3       21073   21199   21193   21067   0.
CQUAD4   22402   3       21096   21222   21205   21079   0.
CQUAD4   22403   3       21097   21223   21222   21096   0.
CQUAD4   22404   3       21081   21207   20461   20335   0.
CQUAD4   22406   3       21079   21205   21206   21080   0.
CQUAD4   22407   3       21098   21224   21215   21089   0.
CQUAD4   22408   3       21078   21204   21205   21079   0.
CQUAD4   22409   3       21077   21203   21204   21078   0.
CQUAD4   22410   3       21076   21202   21203   21077   0.
CQUAD4   22411   3       21091   21217   21202   21076   0.
CQUAD4   22412   3       21090   21216   21217   21091   0.
CQUAD4   22413   3       21089   21215   21216   21090   0.
CQUAD4   22414   3       21088   21214   21215   21089   0.
CQUAD4   22415   3       21087   21213   21214   21088   0.
CQUAD4   22416   3       21086   21212   21213   21087   0.
CQUAD4   22417   3       21095   21221   21212   21086   0.
CQUAD4   22418   3       21094   21220   21221   21095   0.
CQUAD4   22419   3       21107   852     851     21106   0.
CQUAD4   22420   3       21108   853     852     21107   0.
CQUAD4   22421   3       21111   856     848     21102   0.
CQUAD4   22422   3       21112   857     856     21111   0.
CQUAD4   22423   3       21113   858     857     21112   0.
CQUAD4   22424   3       21103   849     850     21104   0.
CQUAD4   22425   3       21102   848     849     21103   0.
CQUAD4   22429   3       21101   847     848     21102   0.
CQUAD4   22430   3       21100   846     847     21101   0.
CQUAD4   22432   3       21134   868     861     21116   0.
CQUAD4   22433   3       21135   869     868     21134   0.
CQUAD4   22434   3       21136   870     869     21135   0.
CQUAD4   22435   3       21142   609     485     20433   0.
CQUAD4   22436   3       21143   608     609     21142   0.
CQUAD4   22437   3       20427   479     608     21143   0.
CQUAD4   22438   3       21110   855     479     20427   0.
CQUAD4   22439   3       21109   854     855     21110   0.
CQUAD4   22440   3       21108   853     854     21109   0.
CQUAD4   22441   3       21118   863     853     21108   0.
CQUAD4   22442   3       21117   862     863     21118   0.
CQUAD4   22443   3       21116   861     862     21117   0.
CQUAD4   22444   3       21144   876     865     21124   0.
CQUAD4   22445   3       21145   877     876     21144   0.
CQUAD4   22446   3       21146   878     877     21145   0.
CQUAD4   22447   3       21115   860     861     21116   0.
CQUAD4   22448   3       21114   859     860     21115   0.
CQUAD4   22449   3       21113   858     859     21114   0.
CQUAD4   22450   3       21126   867     858     21113   0.
CQUAD4   22451   3       21125   866     867     21126   0.
CQUAD4   22452   3       21124   865     866     21125   0.
CQUAD4   22456   3       21123   864     865     21124   0.
CQUAD4   22468   3       21170   896     873     21139   0.
CQUAD4   22470   3       21172   898     897     21171   0.
CQUAD4   22471   3       21141   875     485     20433   0.
CQUAD4   22472   3       21140   874     875     21141   0.
CQUAD4   22473   3       21139   873     874     21140   0.
CQUAD4   22474   3       21175   901     881     21149   0.
CQUAD4   22475   3       21176   902     901     21175   0.
CQUAD4   22476   3       21177   903     902     21176   0.
CQUAD4   22477   3       21138   872     873     21139   0.
CQUAD4   22478   3       21137   871     872     21138   0.
CQUAD4   22479   3       21136   870     871     21137   0.
CQUAD4   22480   3       21151   883     870     21136   0.
CQUAD4   22481   3       21150   882     883     21151   0.
CQUAD4   22482   3       21149   881     882     21150   0.
CQUAD4   22483   3       21183   909     888     21157   0.
CQUAD4   22484   3       21184   910     909     21183   0.
CQUAD4   22485   3       21185   911     910     21184   0.
CQUAD4   22486   3       21148   880     881     21149   0.
CQUAD4   22487   3       21147   879     880     21148   0.
CQUAD4   22488   3       21146   878     879     21147   0.
CQUAD4   22489   3       21159   890     878     21146   0.
CQUAD4   22490   3       21158   889     890     21159   0.
CQUAD4   22491   3       21157   888     889     21158   0.
CQUAD4   22492   3       21191   917     892     21165   0.
CQUAD4   22493   3       21192   918     917     21191   0.
CQUAD4   22494   3       21193   919     918     21192   0.
CQUAD4   22495   3       21156   887     888     21157   0.
CQUAD4   22496   3       21155   886     887     21156   0.
CQUAD4   22497   3       21154   885     886     21155   0.
CQUAD4   22498   3       21167   894     885     21154   0.
CQUAD4   22499   3       21166   893     894     21167   0.
CQUAD4   22500   3       21165   892     893     21166   0.
CQUAD4   22501   3       21164   891     892     21165   0.
CQUAD4   22506   3       21200   926     906     21180   0.
CQUAD4   22507   3       21201   927     926     21200   0.
CQUAD4   22508   3       21202   928     927     21201   0.
CQUAD4   22509   3       21208   667     511     20461   0.
CQUAD4   22510   3       21209   666     667     21208   0.
CQUAD4   22511   3       20455   505     666     21209   0.
CQUAD4   22512   3       21174   900     505     20455   0.
CQUAD4   22513   3       21173   899     900     21174   0.
CQUAD4   22514   3       21172   898     899     21173   0.
CQUAD4   22515   3       21182   908     898     21172   0.
CQUAD4   22516   3       21181   907     908     21182   0.
CQUAD4   22517   3       21180   906     907     21181   0.
CQUAD4   22518   3       21210   934     914     21188   0.
CQUAD4   22519   3       21211   935     934     21210   0.
CQUAD4   22520   3       21212   936     935     21211   0.
CQUAD4   22521   3       21179   905     906     21180   0.
CQUAD4   22522   3       21178   904     905     21179   0.
CQUAD4   22523   3       21177   903     904     21178   0.
CQUAD4   22524   3       21190   916     903     21177   0.
CQUAD4   22525   3       21189   915     916     21190   0.
CQUAD4   22526   3       21188   914     915     21189   0.
CQUAD4   22527   3       21218   942     922     21196   0.
CQUAD4   22528   3       21219   943     942     21218   0.
CQUAD4   22529   3       21187   913     914     21188   0.
CQUAD4   22530   3       21186   912     913     21187   0.
CQUAD4   22531   3       21185   911     912     21186   0.
CQUAD4   22532   3       21198   924     911     21185   0.
CQUAD4   22533   3       21197   923     924     21198   0.
CQUAD4   22534   3       21196   922     923     21197   0.
CQUAD4   22535   3       21195   921     922     21196   0.
CQUAD4   22536   3       21194   920     921     21195   0.
CQUAD4   22537   3       21193   919     920     21194   0.
CQUAD4   22538   3       21199   925     919     21193   0.
CQUAD4   22539   3       21222   946     931     21205   0.
CQUAD4   22540   3       21223   947     946     21222   0.
CQUAD4   22541   3       21207   933     511     20461   0.
CQUAD4   22543   3       21205   931     932     21206   0.
CQUAD4   22544   3       21224   948     939     21215   0.
CQUAD4   22545   3       21204   930     931     21205   0.
CQUAD4   22546   3       21203   929     930     21204   0.
CQUAD4   22547   3       21202   928     929     21203   0.
CQUAD4   22548   3       21217   941     928     21202   0.
CQUAD4   22549   3       21216   940     941     21217   0.
CQUAD4   22550   3       21215   939     940     21216   0.
CQUAD4   22551   3       21214   938     939     21215   0.
CQUAD4   22552   3       21213   937     938     21214   0.
CQUAD4   22553   3       21212   936     937     21213   0.
CQUAD4   22554   3       21221   945     936     21212   0.
CQUAD4   22555   3       21220   944     945     21221   0.
CQUAD4   22556   3       10702   21225   20726   10710   0.
CQUAD4   22557   3       21225   21226   20852   20726   0.
CQUAD4   22558   3       21226   21227   20978   20852   0.
CQUAD4   22559   3       21227   21228   21104   20978   0.
CQUAD4   22560   3       21228   949     850     21104   0.
CQUAD4   22561   3       10717   20728   21229   10699   0.
CQUAD4   22562   3       20728   20854   21230   21229   0.
CQUAD4   22563   3       20854   20980   21231   21230   0.
CQUAD4   22564   3       20980   21106   21232   21231   0.
CQUAD4   22565   3       21106   851     950     21232   0.
CQUAD4   22566   3       10682   10718   21233   20567   0.
CQUAD4   22567   3       10718   10704   21234   21233   0.
CQUAD4   22568   3       10704   10699   21229   21234   0.
CQUAD4   22569   3       10699   10700   21235   21229   0.
CQUAD4   22570   3       10700   10701   21236   21235   0.
CQUAD4   22571   3       10701   10702   21225   21236   0.
CQUAD4   22572   3       10702   10703   21237   21225   0.
CQUAD4   22573   3       10703   10709   21238   21237   0.
CQUAD4   22574   3       10709   10850   21239   21238   0.
CQUAD4   22575   3       20567   21233   21240   20574   0.
CQUAD4   22576   3       21233   21234   21241   21240   0.
CQUAD4   22577   3       21234   21229   21230   21241   0.
CQUAD4   22578   3       21229   21235   21242   21230   0.
CQUAD4   22579   3       21235   21236   21243   21242   0.
CQUAD4   22580   3       21236   21225   21226   21243   0.
CQUAD4   22581   3       21225   21237   21244   21226   0.
CQUAD4   22582   3       21237   21238   21245   21244   0.
CQUAD4   22583   3       21238   21239   21246   21245   0.
CQUAD4   22584   3       20574   21240   21247   20581   0.
CQUAD4   22585   3       21240   21241   21248   21247   0.
CQUAD4   22586   3       21241   21230   21231   21248   0.
CQUAD4   22587   3       21230   21242   21249   21231   0.
CQUAD4   22588   3       21242   21243   21250   21249   0.
CQUAD4   22589   3       21243   21226   21227   21250   0.
CQUAD4   22590   3       21226   21244   21251   21227   0.
CQUAD4   22591   3       21244   21245   21252   21251   0.
CQUAD4   22592   3       21245   21246   21253   21252   0.
CQUAD4   22593   3       20581   21247   21254   20588   0.
CQUAD4   22594   3       21247   21248   21255   21254   0.
CQUAD4   22595   3       21248   21231   21232   21255   0.
CQUAD4   22596   3       21231   21249   21256   21232   0.
CQUAD4   22597   3       21249   21250   21257   21256   0.
CQUAD4   22598   3       21250   21227   21228   21257   0.
CQUAD4   22599   3       21227   21251   21258   21228   0.
CQUAD4   22600   3       21251   21252   21259   21258   0.
CQUAD4   22601   3       21252   21253   21260   21259   0.
CQUAD4   22602   3       20588   21254   951     566     0.
CQUAD4   22603   3       21254   21255   952     951     0.
CQUAD4   22604   3       21255   21232   950     952     0.
CQUAD4   22605   3       21232   21256   953     950     0.
CQUAD4   22606   3       21256   21257   954     953     0.
CQUAD4   22607   3       21257   21228   949     954     0.
CQUAD4   22608   3       21228   21258   955     949     0.
CQUAD4   22609   3       21258   21259   956     955     0.
CQUAD4   22610   3       21259   21260   957     956     0.
CQUAD4   22611   3       10780   20790   21261   10776   0.
CQUAD4   22612   3       20790   20916   21262   21261   0.
CQUAD4   22613   3       20916   21042   21263   21262   0.
CQUAD4   22614   3       21042   21168   21264   21263   0.
CQUAD4   22615   3       21168   895     958     21264   0.
CQUAD4   22616   3       10815   20821   21265   10816   0.
CQUAD4   22617   3       20821   20947   21266   21265   0.
CQUAD4   22618   3       20947   21073   21267   21266   0.
CQUAD4   22619   3       21073   21199   21268   21267   0.
CQUAD4   22620   3       21199   925     959     21268   0.
CQUAD4   22621   3       10838   10837   21269   20841   0.
CQUAD4   22622   3       20841   21269   21270   20967   0.
CQUAD4   22623   3       20967   21270   21271   21093   0.
CQUAD4   22624   3       21093   21271   21272   21219   0.
CQUAD4   22625   3       21219   21272   960     943     0.
CQUAD4   22626   3       10841   10852   21273   20842   0.
CQUAD4   22627   3       20842   21273   21274   20968   0.
CQUAD4   22628   3       20968   21274   21275   21094   0.
CQUAD4   22629   3       21094   21275   21276   21220   0.
CQUAD4   22630   3       21220   21276   961     944     0.
CQUAD4   22631   3       10849   10860   21277   20846   0.
CQUAD4   22632   3       20846   21277   21278   20972   0.
CQUAD4   22633   3       20972   21278   21279   21098   0.
CQUAD4   22634   3       21098   21279   21280   21224   0.
CQUAD4   22635   3       21224   21280   962     948     0.
CQUAD4   22636   3       10847   10853   21281   20845   0.
CQUAD4   22637   3       20845   21281   21282   20971   0.
CQUAD4   22638   3       20971   21282   21283   21097   0.
CQUAD4   22639   3       21097   21283   21284   21223   0.
CQUAD4   22640   3       21223   21284   963     947     0.
CQUAD4   22641   3       10778   10777   21285   21286   0.
CQUAD4   22642   3       10777   10851   21287   21285   0.
CQUAD4   22643   3       10851   10776   21261   21287   0.
CQUAD4   22644   3       10776   10814   21288   21261   0.
CQUAD4   22645   3       10814   10813   21289   21288   0.
CQUAD4   22646   3       10813   10812   21290   21289   0.
CQUAD4   22647   3       10812   10810   21291   21290   0.
CQUAD4   22648   3       10810   10811   21292   21291   0.
CQUAD4   22649   3       10811   10816   21265   21292   0.
CQUAD4   22650   3       10816   10843   21293   21265   0.
CQUAD4   22651   3       10843   10844   21294   21293   0.
CQUAD4   22652   3       10844   10842   21295   21294   0.
CQUAD4   22653   3       10842   10845   21296   21295   0.
CQUAD4   22654   3       10845   10846   21297   21296   0.
CQUAD4   22655   3       10846   10837   21269   21297   0.
CQUAD4   22656   3       10837   10836   21298   21269   0.
CQUAD4   22657   3       10836   10835   21299   21298   0.
CQUAD4   22658   3       10835   10852   21273   21299   0.
CQUAD4   22659   3       10852   10865   21300   21273   0.
CQUAD4   22660   3       10865   10864   21301   21300   0.
CQUAD4   22661   3       10864   10861   21302   21301   0.
CQUAD4   22662   3       10861   10863   21303   21302   0.
CQUAD4   22663   3       10863   10862   21304   21303   0.
CQUAD4   22664   3       10862   10860   21277   21304   0.
CQUAD4   22665   3       10860   10856   21305   21277   0.
CQUAD4   22666   3       10856   10855   21306   21305   0.
CQUAD4   22667   3       10855   10857   21307   21306   0.
CQUAD4   22668   3       10857   10858   21308   21307   0.
CQUAD4   22669   3       10858   10859   21309   21308   0.
CQUAD4   22670   3       10859   10853   21281   21309   0.
CQUAD4   22671   3       10853   10866   21310   21281   0.
CQUAD4   22672   3       10866   10854   21311   21310   0.
CQUAD4   22673   3       10854   10612   20614   21311   0.
CQUAD4   22674   3       21286   21285   21312   21313   0.
CQUAD4   22675   3       21285   21287   21314   21312   0.
CQUAD4   22676   3       21287   21261   21262   21314   0.
CQUAD4   22677   3       21261   21288   21315   21262   0.
CQUAD4   22678   3       21288   21289   21316   21315   0.
CQUAD4   22679   3       21289   21290   21317   21316   0.
CQUAD4   22680   3       21290   21291   21318   21317   0.
CQUAD4   22681   3       21291   21292   21319   21318   0.
CQUAD4   22682   3       21292   21265   21266   21319   0.
CQUAD4   22683   3       21265   21293   21320   21266   0.
CQUAD4   22684   3       21293   21294   21321   21320   0.
CQUAD4   22685   3       21294   21295   21322   21321   0.
CQUAD4   22686   3       21295   21296   21323   21322   0.
CQUAD4   22687   3       21296   21297   21324   21323   0.
CQUAD4   22688   3       21297   21269   21270   21324   0.
CQUAD4   22689   3       21269   21298   21325   21270   0.
CQUAD4   22690   3       21298   21299   21326   21325   0.
CQUAD4   22691   3       21299   21273   21274   21326   0.
CQUAD4   22692   3       21273   21300   21327   21274   0.
CQUAD4   22693   3       21300   21301   21328   21327   0.
CQUAD4   22694   3       21301   21302   21329   21328   0.
CQUAD4   22695   3       21302   21303   21330   21329   0.
CQUAD4   22696   3       21303   21304   21331   21330   0.
CQUAD4   22697   3       21304   21277   21278   21331   0.
CQUAD4   22698   3       21277   21305   21332   21278   0.
CQUAD4   22699   3       21305   21306   21333   21332   0.
CQUAD4   22700   3       21306   21307   21334   21333   0.
CQUAD4   22701   3       21307   21308   21335   21334   0.
CQUAD4   22702   3       21308   21309   21336   21335   0.
CQUAD4   22703   3       21309   21281   21282   21336   0.
CQUAD4   22704   3       21281   21310   21337   21282   0.
CQUAD4   22705   3       21310   21311   21338   21337   0.
CQUAD4   22706   3       21311   20614   20641   21338   0.
CQUAD4   22707   3       21313   21312   21339   21340   0.
CQUAD4   22708   3       21312   21314   21341   21339   0.
CQUAD4   22709   3       21314   21262   21263   21341   0.
CQUAD4   22710   3       21262   21315   21342   21263   0.
CQUAD4   22711   3       21315   21316   21343   21342   0.
CQUAD4   22712   3       21316   21317   21344   21343   0.
CQUAD4   22713   3       21317   21318   21345   21344   0.
CQUAD4   22714   3       21318   21319   21346   21345   0.
CQUAD4   22715   3       21319   21266   21267   21346   0.
CQUAD4   22716   3       21266   21320   21347   21267   0.
CQUAD4   22717   3       21320   21321   21348   21347   0.
CQUAD4   22718   3       21321   21322   21349   21348   0.
CQUAD4   22719   3       21322   21323   21350   21349   0.
CQUAD4   22720   3       21323   21324   21351   21350   0.
CQUAD4   22721   3       21324   21270   21271   21351   0.
CQUAD4   22722   3       21270   21325   21352   21271   0.
CQUAD4   22723   3       21325   21326   21353   21352   0.
CQUAD4   22724   3       21326   21274   21275   21353   0.
CQUAD4   22725   3       21274   21327   21354   21275   0.
CQUAD4   22726   3       21327   21328   21355   21354   0.
CQUAD4   22727   3       21328   21329   21356   21355   0.
CQUAD4   22728   3       21329   21330   21357   21356   0.
CQUAD4   22729   3       21330   21331   21358   21357   0.
CQUAD4   22730   3       21331   21278   21279   21358   0.
CQUAD4   22731   3       21278   21332   21359   21279   0.
CQUAD4   22732   3       21332   21333   21360   21359   0.
CQUAD4   22733   3       21333   21334   21361   21360   0.
CQUAD4   22734   3       21334   21335   21362   21361   0.
CQUAD4   22735   3       21335   21336   21363   21362   0.
CQUAD4   22736   3       21336   21282   21283   21363   0.
CQUAD4   22737   3       21282   21337   21364   21283   0.
CQUAD4   22738   3       21337   21338   21365   21364   0.
CQUAD4   22739   3       21338   20641   20668   21365   0.
CQUAD4   22740   3       21340   21339   21366   21367   0.
CQUAD4   22741   3       21339   21341   21368   21366   0.
CQUAD4   22742   3       21341   21263   21264   21368   0.
CQUAD4   22743   3       21263   21342   21369   21264   0.
CQUAD4   22744   3       21342   21343   21370   21369   0.
CQUAD4   22745   3       21343   21344   21371   21370   0.
CQUAD4   22746   3       21344   21345   21372   21371   0.
CQUAD4   22747   3       21345   21346   21373   21372   0.
CQUAD4   22748   3       21346   21267   21268   21373   0.
CQUAD4   22749   3       21267   21347   21374   21268   0.
CQUAD4   22750   3       21347   21348   21375   21374   0.
CQUAD4   22751   3       21348   21349   21376   21375   0.
CQUAD4   22752   3       21349   21350   21377   21376   0.
CQUAD4   22753   3       21350   21351   21378   21377   0.
CQUAD4   22754   3       21351   21271   21272   21378   0.
CQUAD4   22755   3       21271   21352   21379   21272   0.
CQUAD4   22756   3       21352   21353   21380   21379   0.
CQUAD4   22757   3       21353   21275   21276   21380   0.
CQUAD4   22758   3       21275   21354   21381   21276   0.
CQUAD4   22759   3       21354   21355   21382   21381   0.
CQUAD4   22760   3       21355   21356   21383   21382   0.
CQUAD4   22761   3       21356   21357   21384   21383   0.
CQUAD4   22762   3       21357   21358   21385   21384   0.
CQUAD4   22763   3       21358   21279   21280   21385   0.
CQUAD4   22764   3       21279   21359   21386   21280   0.
CQUAD4   22765   3       21359   21360   21387   21386   0.
CQUAD4   22766   3       21360   21361   21388   21387   0.
CQUAD4   22767   3       21361   21362   21389   21388   0.
CQUAD4   22768   3       21362   21363   21390   21389   0.
CQUAD4   22769   3       21363   21283   21284   21390   0.
CQUAD4   22770   3       21283   21364   21391   21284   0.
CQUAD4   22771   3       21364   21365   21392   21391   0.
CQUAD4   22772   3       21365   20668   20695   21392   0.
CQUAD4   22773   3       21367   21366   964     965     0.
CQUAD4   22774   3       21366   21368   966     964     0.
CQUAD4   22775   3       21368   21264   958     966     0.
CQUAD4   22776   3       21264   21369   967     958     0.
CQUAD4   22777   3       21369   21370   968     967     0.
CQUAD4   22778   3       21370   21371   969     968     0.
CQUAD4   22779   3       21371   21372   970     969     0.
CQUAD4   22780   3       21372   21373   971     970     0.
CQUAD4   22781   3       21373   21268   959     971     0.
CQUAD4   22782   3       21268   21374   972     959     0.
CQUAD4   22783   3       21374   21375   973     972     0.
CQUAD4   22784   3       21375   21376   974     973     0.
CQUAD4   22785   3       21376   21377   975     974     0.
CQUAD4   22786   3       21377   21378   976     975     0.
CQUAD4   22787   3       21378   21272   960     976     0.
CQUAD4   22788   3       21272   21379   977     960     0.
CQUAD4   22789   3       21379   21380   978     977     0.
CQUAD4   22790   3       21380   21276   961     978     0.
CQUAD4   22791   3       21276   21381   979     961     0.
CQUAD4   22792   3       21381   21382   980     979     0.
CQUAD4   22793   3       21382   21383   981     980     0.
CQUAD4   22794   3       21383   21384   982     981     0.
CQUAD4   22795   3       21384   21385   983     982     0.
CQUAD4   22796   3       21385   21280   962     983     0.
CQUAD4   22797   3       21280   21386   984     962     0.
CQUAD4   22798   3       21386   21387   985     984     0.
CQUAD4   22799   3       21387   21388   986     985     0.
CQUAD4   22800   3       21388   21389   987     986     0.
CQUAD4   22801   3       21389   21390   988     987     0.
CQUAD4   22802   3       21390   21284   963     988     0.
CQUAD4   22803   3       21284   21391   989     963     0.
CQUAD4   22804   3       21391   21392   990     989     0.
CQUAD4   22805   3       21392   20695   574     990     0.
CQUAD4   22806   3       10884   21401   21400   10885   0.
CQUAD4   22807   3       10883   21402   21401   10884   0.
CQUAD4   22808   3       10892   21405   21396   10873   0.
CQUAD4   22809   3       10891   21406   21405   10892   0.
CQUAD4   22810   3       10890   21407   21406   10891   0.
CQUAD4   22811   3       10879   21397   21398   10878   0.
CQUAD4   22812   3       10873   21396   21397   10879   0.
CQUAD4   22813   3       10900   21413   21399   10880   0.
CQUAD4   22814   3       10899   21414   21413   10900   0.
CQUAD4   22815   3       10898   21415   21414   10899   0.
CQUAD4   22816   3       10874   21395   21396   10873   0.
CQUAD4   22817   3       10875   21394   21395   10874   0.
CQUAD4   22818   3       10876   21393   21394   10875   0.
CQUAD4   22826   3       10882   21403   21404   10881   0.
CQUAD4   22827   3       10883   21402   21403   10882   0.
CQUAD4   22828   3       10893   21412   21402   10883   0.
CQUAD4   22829   3       10894   21411   21412   10893   0.
CQUAD4   22831   3       10925   21438   21418   10895   0.
CQUAD4   22832   3       10924   21439   21438   10925   0.
CQUAD4   22833   3       10923   21440   21439   10924   0.
CQUAD4   22835   3       10889   21408   21409   10888   0.
CQUAD4   22836   3       10890   21407   21408   10889   0.
CQUAD4   22837   3       10901   21420   21407   10890   0.
CQUAD4   22838   3       10902   21419   21420   10901   0.
CQUAD4   22839   3       10895   21418   21419   10902   0.
CQUAD4   22840   3       10933   21446   21424   10903   0.
CQUAD4   22841   3       10932   21447   21446   10933   0.
CQUAD4   22842   3       10931   21448   21447   10932   0.
CQUAD4   22843   3       10896   21417   21418   10895   0.
CQUAD4   22844   3       10897   21416   21417   10896   0.
CQUAD4   22845   3       10898   21415   21416   10897   0.
CQUAD4   22846   3       10907   21426   21415   10898   0.
CQUAD4   22848   3       10903   21424   21425   10908   0.
CQUAD4   22849   3       10941   21454   21427   10909   0.
CQUAD4   22850   3       10940   21455   21454   10941   0.
CQUAD4   22851   3       10939   21456   21455   10940   0.
CQUAD4   22852   3       10904   21423   21424   10903   0.
CQUAD4   22853   3       10905   21422   21423   10904   0.
CQUAD4   22854   3       10906   21421   21422   10905   0.
CQUAD4   22870   3       10967   21477   21451   10928   0.
CQUAD4   22871   3       10966   21478   21477   10967   0.
CQUAD4   22872   3       10965   21479   21478   10966   0.
CQUAD4   22875   3       10923   21440   21441   10922   0.
CQUAD4   22876   3       10934   21453   21440   10923   0.
CQUAD4   22877   3       10935   21452   21453   10934   0.
CQUAD4   22878   3       10928   21451   21452   10935   0.
CQUAD4   22879   3       10975   21485   21459   10936   0.
CQUAD4   22880   3       10974   21486   21485   10975   0.
CQUAD4   22881   3       10973   21487   21486   10974   0.
CQUAD4   22882   3       10929   21450   21451   10928   0.
CQUAD4   22883   3       10930   21449   21450   10929   0.
CQUAD4   22884   3       10931   21448   21449   10930   0.
CQUAD4   22885   3       10942   21461   21448   10931   0.
CQUAD4   22886   3       10943   21460   21461   10942   0.
CQUAD4   22887   3       10936   21459   21460   10943   0.
CQUAD4   22888   3       10937   21458   21459   10936   0.
CQUAD4   22889   3       10938   21457   21458   10937   0.
CQUAD4   22890   3       10939   21456   21457   10938   0.
CQUAD4   22891   3       10947   21463   21456   10939   0.
CQUAD4   22892   3       10948   21462   21463   10947   0.
CQUAD4   22905   3       11000   21504   21482   10962   0.
CQUAD4   22906   3       10999   21505   21504   11000   0.
CQUAD4   22907   3       10998   21506   21505   10999   0.
CQUAD4   22913   3       10962   21482   21483   10969   0.
CQUAD4   22914   3       11007   21512   21490   10970   0.
CQUAD4   22915   3       11006   21513   21512   11007   0.
CQUAD4   22916   3       10963   21481   21482   10962   0.
CQUAD4   22917   3       10964   21480   21481   10963   0.
CQUAD4   22918   3       10965   21479   21480   10964   0.
CQUAD4   22919   3       10976   21492   21479   10965   0.
CQUAD4   22920   3       10977   21491   21492   10976   0.
CQUAD4   22921   3       10970   21490   21491   10977   0.
CQUAD4   22922   3       10971   21489   21490   10970   0.
CQUAD4   22923   3       10972   21488   21489   10971   0.
CQUAD4   22924   3       10973   21487   21488   10972   0.
CQUAD4   22925   3       10983   21493   21487   10973   0.
CQUAD4   22940   3       10998   21506   21507   10997   0.
CQUAD4   22941   3       11008   21515   21506   10998   0.
CQUAD4   22942   3       11009   21514   21515   11008   0.
CQUAD4   22943   3       21401   21527   21526   21400   0.
CQUAD4   22944   3       21402   21528   21527   21401   0.
CQUAD4   22945   3       21405   21531   21522   21396   0.
CQUAD4   22946   3       21406   21532   21531   21405   0.
CQUAD4   22947   3       21407   21533   21532   21406   0.
CQUAD4   22948   3       21397   21523   21524   21398   0.
CQUAD4   22949   3       21396   21522   21523   21397   0.
CQUAD4   22950   3       21413   21539   21525   21399   0.
CQUAD4   22951   3       21414   21540   21539   21413   0.
CQUAD4   22952   3       21415   21541   21540   21414   0.
CQUAD4   22953   3       21395   21521   21522   21396   0.
CQUAD4   22954   3       21394   21520   21521   21395   0.
CQUAD4   22955   3       21393   21519   21520   21394   0.
CQUAD4   22963   3       21403   21529   21530   21404   0.
CQUAD4   22964   3       21402   21528   21529   21403   0.
CQUAD4   22965   3       21412   21538   21528   21402   0.
CQUAD4   22966   3       21411   21537   21538   21412   0.
CQUAD4   22968   3       21438   21564   21544   21418   0.
CQUAD4   22969   3       21439   21565   21564   21438   0.
CQUAD4   22970   3       21440   21566   21565   21439   0.
CQUAD4   22972   3       21408   21534   21535   21409   0.
CQUAD4   22973   3       21407   21533   21534   21408   0.
CQUAD4   22974   3       21420   21546   21533   21407   0.
CQUAD4   22975   3       21419   21545   21546   21420   0.
CQUAD4   22976   3       21418   21544   21545   21419   0.
CQUAD4   22977   3       21446   21572   21550   21424   0.
CQUAD4   22978   3       21447   21573   21572   21446   0.
CQUAD4   22979   3       21448   21574   21573   21447   0.
CQUAD4   22980   3       21417   21543   21544   21418   0.
CQUAD4   22981   3       21416   21542   21543   21417   0.
CQUAD4   22982   3       21415   21541   21542   21416   0.
CQUAD4   22983   3       21426   21552   21541   21415   0.
CQUAD4   22985   3       21424   21550   21551   21425   0.
CQUAD4   22986   3       21454   21580   21553   21427   0.
CQUAD4   22987   3       21455   21581   21580   21454   0.
CQUAD4   22988   3       21456   21582   21581   21455   0.
CQUAD4   22989   3       21423   21549   21550   21424   0.
CQUAD4   22990   3       21422   21548   21549   21423   0.
CQUAD4   22991   3       21421   21547   21548   21422   0.
CQUAD4   23007   3       21477   21603   21577   21451   0.
CQUAD4   23008   3       21478   21604   21603   21477   0.
CQUAD4   23009   3       21479   21605   21604   21478   0.
CQUAD4   23012   3       21440   21566   21567   21441   0.
CQUAD4   23013   3       21453   21579   21566   21440   0.
CQUAD4   23014   3       21452   21578   21579   21453   0.
CQUAD4   23015   3       21451   21577   21578   21452   0.
CQUAD4   23016   3       21485   21611   21585   21459   0.
CQUAD4   23017   3       21486   21612   21611   21485   0.
CQUAD4   23018   3       21487   21613   21612   21486   0.
CQUAD4   23019   3       21450   21576   21577   21451   0.
CQUAD4   23020   3       21449   21575   21576   21450   0.
CQUAD4   23021   3       21448   21574   21575   21449   0.
CQUAD4   23022   3       21461   21587   21574   21448   0.
CQUAD4   23023   3       21460   21586   21587   21461   0.
CQUAD4   23024   3       21459   21585   21586   21460   0.
CQUAD4   23025   3       21458   21584   21585   21459   0.
CQUAD4   23026   3       21457   21583   21584   21458   0.
CQUAD4   23027   3       21456   21582   21583   21457   0.
CQUAD4   23028   3       21463   21589   21582   21456   0.
CQUAD4   23029   3       21462   21588   21589   21463   0.
CQUAD4   23042   3       21504   21630   21608   21482   0.
CQUAD4   23043   3       21505   21631   21630   21504   0.
CQUAD4   23044   3       21506   21632   21631   21505   0.
CQUAD4   23050   3       21482   21608   21609   21483   0.
CQUAD4   23051   3       21512   21638   21616   21490   0.
CQUAD4   23052   3       21513   21639   21638   21512   0.
CQUAD4   23053   3       21481   21607   21608   21482   0.
CQUAD4   23054   3       21480   21606   21607   21481   0.
CQUAD4   23055   3       21479   21605   21606   21480   0.
CQUAD4   23056   3       21492   21618   21605   21479   0.
CQUAD4   23057   3       21491   21617   21618   21492   0.
CQUAD4   23058   3       21490   21616   21617   21491   0.
CQUAD4   23059   3       21489   21615   21616   21490   0.
CQUAD4   23060   3       21488   21614   21615   21489   0.
CQUAD4   23061   3       21487   21613   21614   21488   0.
CQUAD4   23062   3       21493   21619   21613   21487   0.
CQUAD4   23077   3       21506   21632   21633   21507   0.
CQUAD4   23078   3       21515   21641   21632   21506   0.
CQUAD4   23079   3       21514   21640   21641   21515   0.
CQUAD4   23080   3       21527   21653   21652   21526   0.
CQUAD4   23081   3       21528   21654   21653   21527   0.
CQUAD4   23082   3       21531   21657   21648   21522   0.
CQUAD4   23083   3       21532   21658   21657   21531   0.
CQUAD4   23084   3       21533   21659   21658   21532   0.
CQUAD4   23085   3       21523   21649   21650   21524   0.
CQUAD4   23086   3       21522   21648   21649   21523   0.
CQUAD4   23087   3       21539   21665   21651   21525   0.
CQUAD4   23088   3       21540   21666   21665   21539   0.
CQUAD4   23089   3       21541   21667   21666   21540   0.
CQUAD4   23090   3       21521   21647   21648   21522   0.
CQUAD4   23091   3       21520   21646   21647   21521   0.
CQUAD4   23092   3       21519   21645   21646   21520   0.
CQUAD4   23100   3       21529   21655   21656   21530   0.
CQUAD4   23101   3       21528   21654   21655   21529   0.
CQUAD4   23102   3       21538   21664   21654   21528   0.
CQUAD4   23103   3       21537   21663   21664   21538   0.
CQUAD4   23105   3       21564   21690   21670   21544   0.
CQUAD4   23106   3       21565   21691   21690   21564   0.
CQUAD4   23107   3       21566   21692   21691   21565   0.
CQUAD4   23109   3       21534   21660   21661   21535   0.
CQUAD4   23110   3       21533   21659   21660   21534   0.
CQUAD4   23111   3       21546   21672   21659   21533   0.
CQUAD4   23112   3       21545   21671   21672   21546   0.
CQUAD4   23113   3       21544   21670   21671   21545   0.
CQUAD4   23114   3       21572   21698   21676   21550   0.
CQUAD4   23115   3       21573   21699   21698   21572   0.
CQUAD4   23116   3       21574   21700   21699   21573   0.
CQUAD4   23117   3       21543   21669   21670   21544   0.
CQUAD4   23118   3       21542   21668   21669   21543   0.
CQUAD4   23119   3       21541   21667   21668   21542   0.
CQUAD4   23120   3       21552   21678   21667   21541   0.
CQUAD4   23122   3       21550   21676   21677   21551   0.
CQUAD4   23123   3       21580   21706   21679   21553   0.
CQUAD4   23124   3       21581   21707   21706   21580   0.
CQUAD4   23125   3       21582   21708   21707   21581   0.
CQUAD4   23126   3       21549   21675   21676   21550   0.
CQUAD4   23127   3       21548   21674   21675   21549   0.
CQUAD4   23128   3       21547   21673   21674   21548   0.
CQUAD4   23144   3       21603   21729   21703   21577   0.
CQUAD4   23145   3       21604   21730   21729   21603   0.
CQUAD4   23146   3       21605   21731   21730   21604   0.
CQUAD4   23149   3       21566   21692   21693   21567   0.
CQUAD4   23150   3       21579   21705   21692   21566   0.
CQUAD4   23151   3       21578   21704   21705   21579   0.
CQUAD4   23152   3       21577   21703   21704   21578   0.
CQUAD4   23153   3       21611   21737   21711   21585   0.
CQUAD4   23154   3       21612   21738   21737   21611   0.
CQUAD4   23155   3       21613   21739   21738   21612   0.
CQUAD4   23156   3       21576   21702   21703   21577   0.
CQUAD4   23157   3       21575   21701   21702   21576   0.
CQUAD4   23158   3       21574   21700   21701   21575   0.
CQUAD4   23159   3       21587   21713   21700   21574   0.
CQUAD4   23160   3       21586   21712   21713   21587   0.
CQUAD4   23161   3       21585   21711   21712   21586   0.
CQUAD4   23162   3       21584   21710   21711   21585   0.
CQUAD4   23163   3       21583   21709   21710   21584   0.
CQUAD4   23164   3       21582   21708   21709   21583   0.
CQUAD4   23165   3       21589   21715   21708   21582   0.
CQUAD4   23166   3       21588   21714   21715   21589   0.
CQUAD4   23179   3       21630   21756   21734   21608   0.
CQUAD4   23180   3       21631   21757   21756   21630   0.
CQUAD4   23181   3       21632   21758   21757   21631   0.
CQUAD4   23187   3       21608   21734   21735   21609   0.
CQUAD4   23188   3       21638   21764   21742   21616   0.
CQUAD4   23189   3       21639   21765   21764   21638   0.
CQUAD4   23190   3       21607   21733   21734   21608   0.
CQUAD4   23191   3       21606   21732   21733   21607   0.
CQUAD4   23192   3       21605   21731   21732   21606   0.
CQUAD4   23193   3       21618   21744   21731   21605   0.
CQUAD4   23194   3       21617   21743   21744   21618   0.
CQUAD4   23195   3       21616   21742   21743   21617   0.
CQUAD4   23196   3       21615   21741   21742   21616   0.
CQUAD4   23197   3       21614   21740   21741   21615   0.
CQUAD4   23198   3       21613   21739   21740   21614   0.
CQUAD4   23199   3       21619   21745   21739   21613   0.
CQUAD4   23214   3       21632   21758   21759   21633   0.
CQUAD4   23215   3       21641   21767   21758   21632   0.
CQUAD4   23216   3       21640   21766   21767   21641   0.
CQUAD4   23217   3       21653   21779   21778   21652   0.
CQUAD4   23218   3       21654   21780   21779   21653   0.
CQUAD4   23219   3       21657   21783   21774   21648   0.
CQUAD4   23220   3       21658   21784   21783   21657   0.
CQUAD4   23221   3       21659   21785   21784   21658   0.
CQUAD4   23222   3       21649   21775   21776   21650   0.
CQUAD4   23223   3       21648   21774   21775   21649   0.
CQUAD4   23224   3       21665   21791   21777   21651   0.
CQUAD4   23225   3       21666   21792   21791   21665   0.
CQUAD4   23226   3       21667   21793   21792   21666   0.
CQUAD4   23227   3       21647   21773   21774   21648   0.
CQUAD4   23228   3       21646   21772   21773   21647   0.
CQUAD4   23229   3       21645   21771   21772   21646   0.
CQUAD4   23237   3       21655   21781   21782   21656   0.
CQUAD4   23238   3       21654   21780   21781   21655   0.
CQUAD4   23239   3       21664   21790   21780   21654   0.
CQUAD4   23240   3       21663   21789   21790   21664   0.
CQUAD4   23242   3       21690   21816   21796   21670   0.
CQUAD4   23243   3       21691   21817   21816   21690   0.
CQUAD4   23244   3       21692   21818   21817   21691   0.
CQUAD4   23246   3       21660   21786   21787   21661   0.
CQUAD4   23247   3       21659   21785   21786   21660   0.
CQUAD4   23248   3       21672   21798   21785   21659   0.
CQUAD4   23249   3       21671   21797   21798   21672   0.
CQUAD4   23250   3       21670   21796   21797   21671   0.
CQUAD4   23251   3       21698   21824   21802   21676   0.
CQUAD4   23252   3       21699   21825   21824   21698   0.
CQUAD4   23253   3       21700   21826   21825   21699   0.
CQUAD4   23254   3       21669   21795   21796   21670   0.
CQUAD4   23255   3       21668   21794   21795   21669   0.
CQUAD4   23256   3       21667   21793   21794   21668   0.
CQUAD4   23257   3       21678   21804   21793   21667   0.
CQUAD4   23259   3       21676   21802   21803   21677   0.
CQUAD4   23260   3       21706   21832   21805   21679   0.
CQUAD4   23261   3       21707   21833   21832   21706   0.
CQUAD4   23262   3       21708   21834   21833   21707   0.
CQUAD4   23263   3       21675   21801   21802   21676   0.
CQUAD4   23264   3       21674   21800   21801   21675   0.
CQUAD4   23265   3       21673   21799   21800   21674   0.
CQUAD4   23281   3       21729   21855   21829   21703   0.
CQUAD4   23282   3       21730   21856   21855   21729   0.
CQUAD4   23283   3       21731   21857   21856   21730   0.
CQUAD4   23286   3       21692   21818   21819   21693   0.
CQUAD4   23287   3       21705   21831   21818   21692   0.
CQUAD4   23288   3       21704   21830   21831   21705   0.
CQUAD4   23289   3       21703   21829   21830   21704   0.
CQUAD4   23290   3       21737   21863   21837   21711   0.
CQUAD4   23291   3       21738   21864   21863   21737   0.
CQUAD4   23292   3       21739   21865   21864   21738   0.
CQUAD4   23293   3       21702   21828   21829   21703   0.
CQUAD4   23294   3       21701   21827   21828   21702   0.
CQUAD4   23295   3       21700   21826   21827   21701   0.
CQUAD4   23296   3       21713   21839   21826   21700   0.
CQUAD4   23297   3       21712   21838   21839   21713   0.
CQUAD4   23298   3       21711   21837   21838   21712   0.
CQUAD4   23299   3       21710   21836   21837   21711   0.
CQUAD4   23300   3       21709   21835   21836   21710   0.
CQUAD4   23301   3       21708   21834   21835   21709   0.
CQUAD4   23302   3       21715   21841   21834   21708   0.
CQUAD4   23303   3       21714   21840   21841   21715   0.
CQUAD4   23316   3       21756   21882   21860   21734   0.
CQUAD4   23317   3       21757   21883   21882   21756   0.
CQUAD4   23318   3       21758   21884   21883   21757   0.
CQUAD4   23324   3       21734   21860   21861   21735   0.
CQUAD4   23325   3       21764   21890   21868   21742   0.
CQUAD4   23326   3       21765   21891   21890   21764   0.
CQUAD4   23327   3       21733   21859   21860   21734   0.
CQUAD4   23328   3       21732   21858   21859   21733   0.
CQUAD4   23329   3       21731   21857   21858   21732   0.
CQUAD4   23330   3       21744   21870   21857   21731   0.
CQUAD4   23331   3       21743   21869   21870   21744   0.
CQUAD4   23332   3       21742   21868   21869   21743   0.
CQUAD4   23333   3       21741   21867   21868   21742   0.
CQUAD4   23334   3       21740   21866   21867   21741   0.
CQUAD4   23335   3       21739   21865   21866   21740   0.
CQUAD4   23336   3       21745   21871   21865   21739   0.
CQUAD4   23351   3       21758   21884   21885   21759   0.
CQUAD4   23352   3       21767   21893   21884   21758   0.
CQUAD4   23353   3       21766   21892   21893   21767   0.
CQUAD4   23354   3       21779   1288    1287    21778   0.
CQUAD4   23355   3       21780   1289    1288    21779   0.
CQUAD4   23356   3       21783   1292    1283    21774   0.
CQUAD4   23357   3       21784   1293    1292    21783   0.
CQUAD4   23358   3       21785   1294    1293    21784   0.
CQUAD4   23359   3       21775   1284    1285    21776   0.
CQUAD4   23360   3       21774   1283    1284    21775   0.
CQUAD4   23361   3       21791   1299    1286    21777   0.
CQUAD4   23362   3       21792   1300    1299    21791   0.
CQUAD4   23363   3       21793   1301    1300    21792   0.
CQUAD4   23364   3       21773   1282    1283    21774   0.
CQUAD4   23365   3       21772   1281    1282    21773   0.
CQUAD4   23366   3       21771   1280    1281    21772   0.
CQUAD4   23374   3       21781   1290    1291    21782   0.
CQUAD4   23375   3       21780   1289    1290    21781   0.
CQUAD4   23376   3       21790   1298    1289    21780   0.
CQUAD4   23377   3       21789   1297    1298    21790   0.
CQUAD4   23379   3       21816   1314    1304    21796   0.
CQUAD4   23380   3       21817   1315    1314    21816   0.
CQUAD4   23381   3       21818   1316    1315    21817   0.
CQUAD4   23383   3       21786   1295    1296    21787   0.
CQUAD4   23384   3       21785   1294    1295    21786   0.
CQUAD4   23385   3       21798   1306    1294    21785   0.
CQUAD4   23386   3       21797   1305    1306    21798   0.
CQUAD4   23387   3       21796   1304    1305    21797   0.
CQUAD4   23388   3       21824   1318    1310    21802   0.
CQUAD4   23389   3       21825   1319    1318    21824   0.
CQUAD4   23390   3       21826   1320    1319    21825   0.
CQUAD4   23391   3       21795   1303    1304    21796   0.
CQUAD4   23392   3       21794   1302    1303    21795   0.
CQUAD4   23393   3       21793   1301    1302    21794   0.
CQUAD4   23394   3       21804   1312    1301    21793   0.
CQUAD4   23396   3       21802   1310    1311    21803   0.
CQUAD4   23397   3       21832   1326    1313    21805   0.
CQUAD4   23398   3       21833   1327    1326    21832   0.
CQUAD4   23399   3       21834   1328    1327    21833   0.
CQUAD4   23400   3       21801   1309    1310    21802   0.
CQUAD4   23401   3       21800   1308    1309    21801   0.
CQUAD4   23402   3       21799   1307    1308    21800   0.
CQUAD4   23418   3       21855   1336    1323    21829   0.
CQUAD4   23419   3       21856   1337    1336    21855   0.
CQUAD4   23420   3       21857   1338    1337    21856   0.
CQUAD4   23423   3       21818   1316    1317    21819   0.
CQUAD4   23424   3       21831   1325    1316    21818   0.
CQUAD4   23425   3       21830   1324    1325    21831   0.
CQUAD4   23426   3       21829   1323    1324    21830   0.
CQUAD4   23427   3       21863   1343    1331    21837   0.
CQUAD4   23428   3       21864   1344    1343    21863   0.
CQUAD4   23429   3       21865   1345    1344    21864   0.
CQUAD4   23430   3       21828   1322    1323    21829   0.
CQUAD4   23431   3       21827   1321    1322    21828   0.
CQUAD4   23432   3       21826   1320    1321    21827   0.
CQUAD4   23433   3       21839   1333    1320    21826   0.
CQUAD4   23434   3       21838   1332    1333    21839   0.
CQUAD4   23435   3       21837   1331    1332    21838   0.
CQUAD4   23436   3       21836   1330    1331    21837   0.
CQUAD4   23437   3       21835   1329    1330    21836   0.
CQUAD4   23438   3       21834   1328    1329    21835   0.
CQUAD4   23439   3       21841   1335    1328    21834   0.
CQUAD4   23440   3       21840   1334    1335    21841   0.
CQUAD4   23453   3       21882   1352    1341    21860   0.
CQUAD4   23454   3       21883   1353    1352    21882   0.
CQUAD4   23455   3       21884   1354    1353    21883   0.
CQUAD4   23461   3       21860   1341    1342    21861   0.
CQUAD4   23462   3       21890   1356    1348    21868   0.
CQUAD4   23463   3       21891   1357    1356    21890   0.
CQUAD4   23464   3       21859   1340    1341    21860   0.
CQUAD4   23465   3       21858   1339    1340    21859   0.
CQUAD4   23466   3       21857   1338    1339    21858   0.
CQUAD4   23467   3       21870   1350    1338    21857   0.
CQUAD4   23468   3       21869   1349    1350    21870   0.
CQUAD4   23469   3       21868   1348    1349    21869   0.
CQUAD4   23470   3       21867   1347    1348    21868   0.
CQUAD4   23471   3       21866   1346    1347    21867   0.
CQUAD4   23472   3       21865   1345    1346    21866   0.
CQUAD4   23473   3       21871   1351    1345    21865   0.
CQUAD4   23488   3       21884   1354    1355    21885   0.
CQUAD4   23489   3       21893   1359    1354    21884   0.
CQUAD4   23490   3       21892   1358    1359    21893   0.
CQUAD4   23491   3       10870   21897   21398   10878   0.
CQUAD4   23492   3       21897   21898   21524   21398   0.
CQUAD4   23493   3       21898   21899   21650   21524   0.
CQUAD4   23494   3       21899   21900   21776   21650   0.
CQUAD4   23495   3       21900   1361    1285    21776   0.
CQUAD4   23496   3       10885   21400   21901   10867   0.
CQUAD4   23497   3       21400   21526   21902   21901   0.
CQUAD4   23498   3       21526   21652   21903   21902   0.
CQUAD4   23499   3       21652   21778   21904   21903   0.
CQUAD4   23500   3       21778   1287    1362    21904   0.
CQUAD4   23501   3       10850   10886   21905   21239   0.
CQUAD4   23502   3       10886   10872   21906   21905   0.
CQUAD4   23503   3       10872   10867   21901   21906   0.
CQUAD4   23504   3       10867   10868   21907   21901   0.
CQUAD4   23505   3       10868   10869   21908   21907   0.
CQUAD4   23506   3       10869   10870   21897   21908   0.
CQUAD4   23507   3       10870   10871   21909   21897   0.
CQUAD4   23508   3       10871   10877   21910   21909   0.
CQUAD4   23509   3       10877   11018   21911   21910   0.
CQUAD4   23510   3       21239   21905   21912   21246   0.
CQUAD4   23511   3       21905   21906   21913   21912   0.
CQUAD4   23512   3       21906   21901   21902   21913   0.
CQUAD4   23513   3       21901   21907   21914   21902   0.
CQUAD4   23514   3       21907   21908   21915   21914   0.
CQUAD4   23515   3       21908   21897   21898   21915   0.
CQUAD4   23516   3       21897   21909   21916   21898   0.
CQUAD4   23517   3       21909   21910   21917   21916   0.
CQUAD4   23518   3       21910   21911   21918   21917   0.
CQUAD4   23519   3       21246   21912   21919   21253   0.
CQUAD4   23520   3       21912   21913   21920   21919   0.
CQUAD4   23521   3       21913   21902   21903   21920   0.
CQUAD4   23522   3       21902   21914   21921   21903   0.
CQUAD4   23523   3       21914   21915   21922   21921   0.
CQUAD4   23524   3       21915   21898   21899   21922   0.
CQUAD4   23525   3       21898   21916   21923   21899   0.
CQUAD4   23526   3       21916   21917   21924   21923   0.
CQUAD4   23527   3       21917   21918   21925   21924   0.
CQUAD4   23528   3       21253   21919   21926   21260   0.
CQUAD4   23529   3       21919   21920   21927   21926   0.
CQUAD4   23530   3       21920   21903   21904   21927   0.
CQUAD4   23531   3       21903   21921   21928   21904   0.
CQUAD4   23532   3       21921   21922   21929   21928   0.
CQUAD4   23533   3       21922   21899   21900   21929   0.
CQUAD4   23534   3       21899   21923   21930   21900   0.
CQUAD4   23535   3       21923   21924   21931   21930   0.
CQUAD4   23536   3       21924   21925   21932   21931   0.
CQUAD4   23537   3       21260   21926   1363    957     0.
CQUAD4   23538   3       21926   21927   1364    1363    0.
CQUAD4   23539   3       21927   21904   1362    1364    0.
CQUAD4   23540   3       21904   21928   1365    1362    0.
CQUAD4   23541   3       21928   21929   1366    1365    0.
CQUAD4   23542   3       21929   21900   1361    1366    0.
CQUAD4   23543   3       21900   21930   1367    1361    0.
CQUAD4   23544   3       21930   21931   1368    1367    0.
CQUAD4   23545   3       21931   21932   1369    1368    0.
CQUAD4   23546   3       10948   21462   21933   10944   0.
CQUAD4   23547   3       21462   21588   21934   21933   0.
CQUAD4   23548   3       21588   21714   21935   21934   0.
CQUAD4   23549   3       21714   21840   21936   21935   0.
CQUAD4   23550   3       21840   1334    1370    21936   0.
CQUAD4   23551   3       10983   21493   21937   10984   0.
CQUAD4   23552   3       21493   21619   21938   21937   0.
CQUAD4   23553   3       21619   21745   21939   21938   0.
CQUAD4   23554   3       21745   21871   21940   21939   0.
CQUAD4   23555   3       21871   1351    1371    21940   0.
CQUAD4   23556   3       11006   11005   21941   21513   0.
CQUAD4   23557   3       21513   21941   21942   21639   0.
CQUAD4   23558   3       21639   21942   21943   21765   0.
CQUAD4   23559   3       21765   21943   21944   21891   0.
CQUAD4   23560   3       21891   21944   1372    1357    0.
CQUAD4   23561   3       11009   11020   21945   21514   0.
CQUAD4   23562   3       21514   21945   21946   21640   0.
CQUAD4   23563   3       21640   21946   21947   21766   0.
CQUAD4   23564   3       21766   21947   21948   21892   0.
CQUAD4   23565   3       21892   21948   1373    1358    0.
CQUAD4   23571   3       11015   11021   21953   21517   0.
CQUAD4   23572   3       21517   21953   21954   21643   0.
CQUAD4   23573   3       21643   21954   21955   21769   0.
CQUAD4   23574   3       21769   21955   21956   21895   0.
CQUAD4   23575   3       21895   21956   1375    1360    0.
CQUAD4   23576   3       10946   10945   21957   21958   0.
CQUAD4   23577   3       10945   11019   21959   21957   0.
CQUAD4   23578   3       11019   10944   21933   21959   0.
CQUAD4   23579   3       10944   10982   21960   21933   0.
CQUAD4   23580   3       10982   10981   21961   21960   0.
CQUAD4   23581   3       10981   10980   21962   21961   0.
CQUAD4   23582   3       10980   10978   21963   21962   0.
CQUAD4   23583   3       10978   10979   21964   21963   0.
CQUAD4   23584   3       10979   10984   21937   21964   0.
CQUAD4   23585   3       10984   11011   21965   21937   0.
CQUAD4   23586   3       11011   11012   21966   21965   0.
CQUAD4   23587   3       11012   11010   21967   21966   0.
CQUAD4   23588   3       11010   11013   21968   21967   0.
CQUAD4   23589   3       11013   11014   21969   21968   0.
CQUAD4   23590   3       11014   11005   21941   21969   0.
CQUAD4   23591   3       11005   11004   21970   21941   0.
CQUAD4   23592   3       11004   11003   21971   21970   0.
CQUAD4   23593   3       11003   11020   21945   21971   0.
CQUAD4   23594   3       11020   11033   21972   21945   0.
CQUAD4   23595   3       11033   11032   21973   21972   0.
CQUAD4   23596   3       11032   11029   21974   21973   0.
CQUAD4   23597   3       11029   11031   21975   21974   0.
CQUAD4   23600   3       11028   11024   21977   21949   0.
CQUAD4   23601   3       11024   11023   21978   21977   0.
CQUAD4   23602   3       11023   11025   21979   21978   0.
CQUAD4   23603   3       11025   11026   21980   21979   0.
CQUAD4   23604   3       11026   11027   21981   21980   0.
CQUAD4   23605   3       11027   11021   21953   21981   0.
CQUAD4   23606   3       11021   11034   21982   21953   0.
CQUAD4   23607   3       11034   11022   21983   21982   0.
CQUAD4   23608   3       11022   10778   21286   21983   0.
CQUAD4   23609   3       21958   21957   21984   21985   0.
CQUAD4   23610   3       21957   21959   21986   21984   0.
CQUAD4   23611   3       21959   21933   21934   21986   0.
CQUAD4   23612   3       21933   21960   21987   21934   0.
CQUAD4   23613   3       21960   21961   21988   21987   0.
CQUAD4   23614   3       21961   21962   21989   21988   0.
CQUAD4   23615   3       21962   21963   21990   21989   0.
CQUAD4   23616   3       21963   21964   21991   21990   0.
CQUAD4   23617   3       21964   21937   21938   21991   0.
CQUAD4   23618   3       21937   21965   21992   21938   0.
CQUAD4   23619   3       21965   21966   21993   21992   0.
CQUAD4   23620   3       21966   21967   21994   21993   0.
CQUAD4   23621   3       21967   21968   21995   21994   0.
CQUAD4   23622   3       21968   21969   21996   21995   0.
CQUAD4   23623   3       21969   21941   21942   21996   0.
CQUAD4   23624   3       21941   21970   21997   21942   0.
CQUAD4   23625   3       21970   21971   21998   21997   0.
CQUAD4   23626   3       21971   21945   21946   21998   0.
CQUAD4   23627   3       21945   21972   21999   21946   0.
CQUAD4   23628   3       21972   21973   22000   21999   0.
CQUAD4   23629   3       21973   21974   22001   22000   0.
CQUAD4   23630   3       21974   21975   22002   22001   0.
CQUAD4   23633   3       21949   21977   22004   21950   0.
CQUAD4   23634   3       21977   21978   22005   22004   0.
CQUAD4   23635   3       21978   21979   22006   22005   0.
CQUAD4   23636   3       21979   21980   22007   22006   0.
CQUAD4   23637   3       21980   21981   22008   22007   0.
CQUAD4   23638   3       21981   21953   21954   22008   0.
CQUAD4   23639   3       21953   21982   22009   21954   0.
CQUAD4   23640   3       21982   21983   22010   22009   0.
CQUAD4   23641   3       21983   21286   21313   22010   0.
CQUAD4   23642   3       21985   21984   22011   22012   0.
CQUAD4   23643   3       21984   21986   22013   22011   0.
CQUAD4   23644   3       21986   21934   21935   22013   0.
CQUAD4   23645   3       21934   21987   22014   21935   0.
CQUAD4   23646   3       21987   21988   22015   22014   0.
CQUAD4   23647   3       21988   21989   22016   22015   0.
CQUAD4   23648   3       21989   21990   22017   22016   0.
CQUAD4   23649   3       21990   21991   22018   22017   0.
CQUAD4   23650   3       21991   21938   21939   22018   0.
CQUAD4   23651   3       21938   21992   22019   21939   0.
CQUAD4   23652   3       21992   21993   22020   22019   0.
CQUAD4   23653   3       21993   21994   22021   22020   0.
CQUAD4   23654   3       21994   21995   22022   22021   0.
CQUAD4   23655   3       21995   21996   22023   22022   0.
CQUAD4   23656   3       21996   21942   21943   22023   0.
CQUAD4   23657   3       21942   21997   22024   21943   0.
CQUAD4   23658   3       21997   21998   22025   22024   0.
CQUAD4   23659   3       21998   21946   21947   22025   0.
CQUAD4   23660   3       21946   21999   22026   21947   0.
CQUAD4   23661   3       21999   22000   22027   22026   0.
CQUAD4   23662   3       22000   22001   22028   22027   0.
CQUAD4   23663   3       22001   22002   22029   22028   0.
CQUAD4   23666   3       21950   22004   22031   21951   0.
CQUAD4   23667   3       22004   22005   22032   22031   0.
CQUAD4   23668   3       22005   22006   22033   22032   0.
CQUAD4   23669   3       22006   22007   22034   22033   0.
CQUAD4   23670   3       22007   22008   22035   22034   0.
CQUAD4   23671   3       22008   21954   21955   22035   0.
CQUAD4   23672   3       21954   22009   22036   21955   0.
CQUAD4   23673   3       22009   22010   22037   22036   0.
CQUAD4   23674   3       22010   21313   21340   22037   0.
CQUAD4   23675   3       22012   22011   22038   22039   0.
CQUAD4   23676   3       22011   22013   22040   22038   0.
CQUAD4   23677   3       22013   21935   21936   22040   0.
CQUAD4   23678   3       21935   22014   22041   21936   0.
CQUAD4   23679   3       22014   22015   22042   22041   0.
CQUAD4   23680   3       22015   22016   22043   22042   0.
CQUAD4   23681   3       22016   22017   22044   22043   0.
CQUAD4   23682   3       22017   22018   22045   22044   0.
CQUAD4   23683   3       22018   21939   21940   22045   0.
CQUAD4   23684   3       21939   22019   22046   21940   0.
CQUAD4   23685   3       22019   22020   22047   22046   0.
CQUAD4   23686   3       22020   22021   22048   22047   0.
CQUAD4   23687   3       22021   22022   22049   22048   0.
CQUAD4   23688   3       22022   22023   22050   22049   0.
CQUAD4   23689   3       22023   21943   21944   22050   0.
CQUAD4   23690   3       21943   22024   22051   21944   0.
CQUAD4   23691   3       22024   22025   22052   22051   0.
CQUAD4   23692   3       22025   21947   21948   22052   0.
CQUAD4   23693   3       21947   22026   22053   21948   0.
CQUAD4   23694   3       22026   22027   22054   22053   0.
CQUAD4   23695   3       22027   22028   22055   22054   0.
CQUAD4   23696   3       22028   22029   22056   22055   0.
CQUAD4   23699   3       21951   22031   22058   21952   0.
CQUAD4   23700   3       22031   22032   22059   22058   0.
CQUAD4   23701   3       22032   22033   22060   22059   0.
CQUAD4   23702   3       22033   22034   22061   22060   0.
CQUAD4   23703   3       22034   22035   22062   22061   0.
CQUAD4   23704   3       22035   21955   21956   22062   0.
CQUAD4   23705   3       21955   22036   22063   21956   0.
CQUAD4   23706   3       22036   22037   22064   22063   0.
CQUAD4   23707   3       22037   21340   21367   22064   0.
CQUAD4   23708   3       22039   22038   1376    1377    0.
CQUAD4   23709   3       22038   22040   1378    1376    0.
CQUAD4   23710   3       22040   21936   1370    1378    0.
CQUAD4   23711   3       21936   22041   1379    1370    0.
CQUAD4   23712   3       22041   22042   1380    1379    0.
CQUAD4   23713   3       22042   22043   1381    1380    0.
CQUAD4   23714   3       22043   22044   1382    1381    0.
CQUAD4   23715   3       22044   22045   1383    1382    0.
CQUAD4   23716   3       22045   21940   1371    1383    0.
CQUAD4   23717   3       21940   22046   1384    1371    0.
CQUAD4   23718   3       22046   22047   1385    1384    0.
CQUAD4   23719   3       22047   22048   1386    1385    0.
CQUAD4   23720   3       22048   22049   1387    1386    0.
CQUAD4   23721   3       22049   22050   1388    1387    0.
CQUAD4   23722   3       22050   21944   1372    1388    0.
CQUAD4   23723   3       21944   22051   1389    1372    0.
CQUAD4   23724   3       22051   22052   1390    1389    0.
CQUAD4   23725   3       22052   21948   1373    1390    0.
CQUAD4   23726   3       21948   22053   1391    1373    0.
CQUAD4   23727   3       22053   22054   1392    1391    0.
CQUAD4   23728   3       22054   22055   1393    1392    0.
CQUAD4   23729   3       22055   22056   1394    1393    0.
CQUAD4   23732   3       21952   22058   1395    1374    0.
CQUAD4   23733   3       22058   22059   1396    1395    0.
CQUAD4   23734   3       22059   22060   1397    1396    0.
CQUAD4   23735   3       22060   22061   1398    1397    0.
CQUAD4   23736   3       22061   22062   1399    1398    0.
CQUAD4   23737   3       22062   21956   1375    1399    0.
CQUAD4   23738   3       21956   22063   1400    1375    0.
CQUAD4   23739   3       22063   22064   1401    1400    0.
CQUAD4   23740   3       22064   21367   965     1401    0.
CQUAD4   23741   3       11052   22073   22072   11053   0.
CQUAD4   23742   3       11051   22074   22073   11052   0.
CQUAD4   23743   3       11060   22077   22068   11041   0.
CQUAD4   23744   3       11059   22078   22077   11060   0.
CQUAD4   23745   3       11058   22079   22078   11059   0.
CQUAD4   23746   3       11047   22069   22070   11046   0.
CQUAD4   23747   3       11041   22068   22069   11047   0.
CQUAD4   23751   3       11042   22067   22068   11041   0.
CQUAD4   23752   3       11043   22066   22067   11042   0.
CQUAD4   23754   3       11083   22100   22082   11055   0.
CQUAD4   23755   3       11082   22101   22100   11083   0.
CQUAD4   23756   3       11081   22102   22101   11082   0.
CQUAD4   23757   3       11085   22108   21399   10880   0.
CQUAD4   23758   3       11084   22109   22108   11085   0.
CQUAD4   23759   3       10876   21393   22109   11084   0.
CQUAD4   23760   3       11049   22076   21393   10876   0.
CQUAD4   23761   3       11050   22075   22076   11049   0.
CQUAD4   23762   3       11051   22074   22075   11050   0.
CQUAD4   23763   3       11061   22084   22074   11051   0.
CQUAD4   23764   3       11062   22083   22084   11061   0.
CQUAD4   23765   3       11055   22082   22083   11062   0.
CQUAD4   23766   3       11093   22110   22090   11063   0.
CQUAD4   23767   3       11092   22111   22110   11093   0.
CQUAD4   23768   3       11091   22112   22111   11092   0.
CQUAD4   23769   3       11056   22081   22082   11055   0.
CQUAD4   23770   3       11057   22080   22081   11056   0.
CQUAD4   23771   3       11058   22079   22080   11057   0.
CQUAD4   23772   3       11069   22092   22079   11058   0.
CQUAD4   23773   3       11070   22091   22092   11069   0.
CQUAD4   23774   3       11063   22090   22091   11070   0.
CQUAD4   23778   3       11064   22089   22090   11063   0.
CQUAD4   23779   3       11065   22088   22089   11064   0.
CQUAD4   23790   3       11121   22136   22105   11078   0.
CQUAD4   23791   3       11120   22137   22136   11121   0.
CQUAD4   23792   3       11119   22138   22137   11120   0.
CQUAD4   23793   3       11086   22107   21399   10880   0.
CQUAD4   23794   3       11087   22106   22107   11086   0.
CQUAD4   23795   3       11078   22105   22106   11087   0.
CQUAD4   23796   3       11127   22141   22115   11088   0.
CQUAD4   23797   3       11126   22142   22141   11127   0.
CQUAD4   23798   3       11125   22143   22142   11126   0.
CQUAD4   23799   3       11079   22104   22105   11078   0.
CQUAD4   23800   3       11080   22103   22104   11079   0.
CQUAD4   23801   3       11081   22102   22103   11080   0.
CQUAD4   23802   3       11094   22117   22102   11081   0.
CQUAD4   23803   3       11095   22116   22117   11094   0.
CQUAD4   23804   3       11088   22115   22116   11095   0.
CQUAD4   23805   3       11135   22149   22123   11096   0.
CQUAD4   23806   3       11134   22150   22149   11135   0.
CQUAD4   23807   3       11133   22151   22150   11134   0.
CQUAD4   23808   3       11089   22114   22115   11088   0.
CQUAD4   23809   3       11090   22113   22114   11089   0.
CQUAD4   23810   3       11091   22112   22113   11090   0.
CQUAD4   23811   3       11102   22125   22112   11091   0.
CQUAD4   23812   3       11103   22124   22125   11102   0.
CQUAD4   23813   3       11096   22123   22124   11103   0.
CQUAD4   23814   3       11143   22157   22131   11104   0.
CQUAD4   23815   3       11142   22158   22157   11143   0.
CQUAD4   23816   3       11141   22159   22158   11142   0.
CQUAD4   23817   3       11097   22122   22123   11096   0.
CQUAD4   23818   3       11098   22121   22122   11097   0.
CQUAD4   23826   3       11115   22135   22128   11107   0.
CQUAD4   23827   3       11116   22134   22135   11115   0.
CQUAD4   23828   3       11158   22166   22146   11122   0.
CQUAD4   23829   3       11157   22167   22166   11158   0.
CQUAD4   23830   3       11156   22168   22167   11157   0.
CQUAD4   23831   3       11160   22174   21427   10909   0.
CQUAD4   23832   3       11159   22175   22174   11160   0.
CQUAD4   23833   3       10906   21421   22175   11159   0.
CQUAD4   23834   3       11117   22140   21421   10906   0.
CQUAD4   23835   3       11118   22139   22140   11117   0.
CQUAD4   23836   3       11119   22138   22139   11118   0.
CQUAD4   23837   3       11128   22148   22138   11119   0.
CQUAD4   23838   3       11129   22147   22148   11128   0.
CQUAD4   23839   3       11122   22146   22147   11129   0.
CQUAD4   23840   3       11168   22176   22154   11130   0.
CQUAD4   23841   3       11167   22177   22176   11168   0.
CQUAD4   23842   3       11166   22178   22177   11167   0.
CQUAD4   23843   3       11123   22145   22146   11122   0.
CQUAD4   23844   3       11124   22144   22145   11123   0.
CQUAD4   23845   3       11125   22143   22144   11124   0.
CQUAD4   23846   3       11136   22156   22143   11125   0.
CQUAD4   23847   3       11137   22155   22156   11136   0.
CQUAD4   23848   3       11130   22154   22155   11137   0.
CQUAD4   23849   3       11175   22184   22162   11138   0.
CQUAD4   23850   3       11174   22185   22184   11175   0.
CQUAD4   23851   3       11131   22153   22154   11130   0.
CQUAD4   23852   3       11132   22152   22153   11131   0.
CQUAD4   23853   3       11133   22151   22152   11132   0.
CQUAD4   23854   3       11144   22164   22151   11133   0.
CQUAD4   23855   3       11145   22163   22164   11144   0.
CQUAD4   23856   3       11138   22162   22163   11145   0.
CQUAD4   23857   3       11139   22161   22162   11138   0.
CQUAD4   23858   3       11140   22160   22161   11139   0.
CQUAD4   23859   3       11141   22159   22160   11140   0.
CQUAD4   23860   3       11151   22165   22159   11141   0.
CQUAD4   23861   3       11184   22188   22171   11153   0.
CQUAD4   23862   3       11183   22189   22188   11184   0.
CQUAD4   23863   3       11161   22173   21427   10909   0.
CQUAD4   23865   3       11153   22171   22172   11162   0.
CQUAD4   23866   3       11185   22190   22181   11163   0.
CQUAD4   23867   3       11154   22170   22171   11153   0.
CQUAD4   23868   3       11155   22169   22170   11154   0.
CQUAD4   23869   3       11156   22168   22169   11155   0.
CQUAD4   23870   3       11169   22183   22168   11156   0.
CQUAD4   23871   3       11170   22182   22183   11169   0.
CQUAD4   23872   3       11163   22181   22182   11170   0.
CQUAD4   23873   3       11164   22180   22181   11163   0.
CQUAD4   23874   3       11165   22179   22180   11164   0.
CQUAD4   23875   3       11166   22178   22179   11165   0.
CQUAD4   23876   3       11176   22187   22178   11166   0.
CQUAD4   23877   3       11177   22186   22187   11176   0.
CQUAD4   23878   3       22073   22199   22198   22072   0.
CQUAD4   23879   3       22074   22200   22199   22073   0.
CQUAD4   23880   3       22077   22203   22194   22068   0.
CQUAD4   23881   3       22078   22204   22203   22077   0.
CQUAD4   23882   3       22079   22205   22204   22078   0.
CQUAD4   23883   3       22069   22195   22196   22070   0.
CQUAD4   23884   3       22068   22194   22195   22069   0.
CQUAD4   23888   3       22067   22193   22194   22068   0.
CQUAD4   23889   3       22066   22192   22193   22067   0.
CQUAD4   23891   3       22100   22226   22208   22082   0.
CQUAD4   23892   3       22101   22227   22226   22100   0.
CQUAD4   23893   3       22102   22228   22227   22101   0.
CQUAD4   23894   3       22108   22234   21525   21399   0.
CQUAD4   23895   3       22109   22235   22234   22108   0.
CQUAD4   23896   3       21393   21519   22235   22109   0.
CQUAD4   23897   3       22076   22202   21519   21393   0.
CQUAD4   23898   3       22075   22201   22202   22076   0.
CQUAD4   23899   3       22074   22200   22201   22075   0.
CQUAD4   23900   3       22084   22210   22200   22074   0.
CQUAD4   23901   3       22083   22209   22210   22084   0.
CQUAD4   23902   3       22082   22208   22209   22083   0.
CQUAD4   23903   3       22110   22236   22216   22090   0.
CQUAD4   23904   3       22111   22237   22236   22110   0.
CQUAD4   23905   3       22112   22238   22237   22111   0.
CQUAD4   23906   3       22081   22207   22208   22082   0.
CQUAD4   23907   3       22080   22206   22207   22081   0.
CQUAD4   23908   3       22079   22205   22206   22080   0.
CQUAD4   23909   3       22092   22218   22205   22079   0.
CQUAD4   23910   3       22091   22217   22218   22092   0.
CQUAD4   23911   3       22090   22216   22217   22091   0.
CQUAD4   23915   3       22089   22215   22216   22090   0.
CQUAD4   23916   3       22088   22214   22215   22089   0.
CQUAD4   23927   3       22136   22262   22231   22105   0.
CQUAD4   23928   3       22137   22263   22262   22136   0.
CQUAD4   23929   3       22138   22264   22263   22137   0.
CQUAD4   23930   3       22107   22233   21525   21399   0.
CQUAD4   23931   3       22106   22232   22233   22107   0.
CQUAD4   23932   3       22105   22231   22232   22106   0.
CQUAD4   23933   3       22141   22267   22241   22115   0.
CQUAD4   23934   3       22142   22268   22267   22141   0.
CQUAD4   23935   3       22143   22269   22268   22142   0.
CQUAD4   23936   3       22104   22230   22231   22105   0.
CQUAD4   23937   3       22103   22229   22230   22104   0.
CQUAD4   23938   3       22102   22228   22229   22103   0.
CQUAD4   23939   3       22117   22243   22228   22102   0.
CQUAD4   23940   3       22116   22242   22243   22117   0.
CQUAD4   23941   3       22115   22241   22242   22116   0.
CQUAD4   23942   3       22149   22275   22249   22123   0.
CQUAD4   23943   3       22150   22276   22275   22149   0.
CQUAD4   23944   3       22151   22277   22276   22150   0.
CQUAD4   23945   3       22114   22240   22241   22115   0.
CQUAD4   23946   3       22113   22239   22240   22114   0.
CQUAD4   23947   3       22112   22238   22239   22113   0.
CQUAD4   23948   3       22125   22251   22238   22112   0.
CQUAD4   23949   3       22124   22250   22251   22125   0.
CQUAD4   23950   3       22123   22249   22250   22124   0.
CQUAD4   23951   3       22157   22283   22257   22131   0.
CQUAD4   23952   3       22158   22284   22283   22157   0.
CQUAD4   23953   3       22159   22285   22284   22158   0.
CQUAD4   23954   3       22122   22248   22249   22123   0.
CQUAD4   23955   3       22121   22247   22248   22122   0.
CQUAD4   23963   3       22135   22261   22254   22128   0.
CQUAD4   23964   3       22134   22260   22261   22135   0.
CQUAD4   23965   3       22166   22292   22272   22146   0.
CQUAD4   23966   3       22167   22293   22292   22166   0.
CQUAD4   23967   3       22168   22294   22293   22167   0.
CQUAD4   23968   3       22174   22300   21553   21427   0.
CQUAD4   23969   3       22175   22301   22300   22174   0.
CQUAD4   23970   3       21421   21547   22301   22175   0.
CQUAD4   23971   3       22140   22266   21547   21421   0.
CQUAD4   23972   3       22139   22265   22266   22140   0.
CQUAD4   23973   3       22138   22264   22265   22139   0.
CQUAD4   23974   3       22148   22274   22264   22138   0.
CQUAD4   23975   3       22147   22273   22274   22148   0.
CQUAD4   23976   3       22146   22272   22273   22147   0.
CQUAD4   23977   3       22176   22302   22280   22154   0.
CQUAD4   23978   3       22177   22303   22302   22176   0.
CQUAD4   23979   3       22178   22304   22303   22177   0.
CQUAD4   23980   3       22145   22271   22272   22146   0.
CQUAD4   23981   3       22144   22270   22271   22145   0.
CQUAD4   23982   3       22143   22269   22270   22144   0.
CQUAD4   23983   3       22156   22282   22269   22143   0.
CQUAD4   23984   3       22155   22281   22282   22156   0.
CQUAD4   23985   3       22154   22280   22281   22155   0.
CQUAD4   23986   3       22184   22310   22288   22162   0.
CQUAD4   23987   3       22185   22311   22310   22184   0.
CQUAD4   23988   3       22153   22279   22280   22154   0.
CQUAD4   23989   3       22152   22278   22279   22153   0.
CQUAD4   23990   3       22151   22277   22278   22152   0.
CQUAD4   23991   3       22164   22290   22277   22151   0.
CQUAD4   23992   3       22163   22289   22290   22164   0.
CQUAD4   23993   3       22162   22288   22289   22163   0.
CQUAD4   23994   3       22161   22287   22288   22162   0.
CQUAD4   23995   3       22160   22286   22287   22161   0.
CQUAD4   23996   3       22159   22285   22286   22160   0.
CQUAD4   23997   3       22165   22291   22285   22159   0.
CQUAD4   23998   3       22188   22314   22297   22171   0.
CQUAD4   23999   3       22189   22315   22314   22188   0.
CQUAD4   24000   3       22173   22299   21553   21427   0.
CQUAD4   24002   3       22171   22297   22298   22172   0.
CQUAD4   24003   3       22190   22316   22307   22181   0.
CQUAD4   24004   3       22170   22296   22297   22171   0.
CQUAD4   24005   3       22169   22295   22296   22170   0.
CQUAD4   24006   3       22168   22294   22295   22169   0.
CQUAD4   24007   3       22183   22309   22294   22168   0.
CQUAD4   24008   3       22182   22308   22309   22183   0.
CQUAD4   24009   3       22181   22307   22308   22182   0.
CQUAD4   24010   3       22180   22306   22307   22181   0.
CQUAD4   24011   3       22179   22305   22306   22180   0.
CQUAD4   24012   3       22178   22304   22305   22179   0.
CQUAD4   24013   3       22187   22313   22304   22178   0.
CQUAD4   24014   3       22186   22312   22313   22187   0.
CQUAD4   24015   3       22199   22325   22324   22198   0.
CQUAD4   24016   3       22200   22326   22325   22199   0.
CQUAD4   24017   3       22203   22329   22320   22194   0.
CQUAD4   24018   3       22204   22330   22329   22203   0.
CQUAD4   24019   3       22205   22331   22330   22204   0.
CQUAD4   24020   3       22195   22321   22322   22196   0.
CQUAD4   24021   3       22194   22320   22321   22195   0.
CQUAD4   24025   3       22193   22319   22320   22194   0.
CQUAD4   24026   3       22192   22318   22319   22193   0.
CQUAD4   24028   3       22226   22352   22334   22208   0.
CQUAD4   24029   3       22227   22353   22352   22226   0.
CQUAD4   24030   3       22228   22354   22353   22227   0.
CQUAD4   24031   3       22234   22360   21651   21525   0.
CQUAD4   24032   3       22235   22361   22360   22234   0.
CQUAD4   24033   3       21519   21645   22361   22235   0.
CQUAD4   24034   3       22202   22328   21645   21519   0.
CQUAD4   24035   3       22201   22327   22328   22202   0.
CQUAD4   24036   3       22200   22326   22327   22201   0.
CQUAD4   24037   3       22210   22336   22326   22200   0.
CQUAD4   24038   3       22209   22335   22336   22210   0.
CQUAD4   24039   3       22208   22334   22335   22209   0.
CQUAD4   24040   3       22236   22362   22342   22216   0.
CQUAD4   24041   3       22237   22363   22362   22236   0.
CQUAD4   24042   3       22238   22364   22363   22237   0.
CQUAD4   24043   3       22207   22333   22334   22208   0.
CQUAD4   24044   3       22206   22332   22333   22207   0.
CQUAD4   24045   3       22205   22331   22332   22206   0.
CQUAD4   24046   3       22218   22344   22331   22205   0.
CQUAD4   24047   3       22217   22343   22344   22218   0.
CQUAD4   24048   3       22216   22342   22343   22217   0.
CQUAD4   24052   3       22215   22341   22342   22216   0.
CQUAD4   24053   3       22214   22340   22341   22215   0.
CQUAD4   24064   3       22262   22388   22357   22231   0.
CQUAD4   24065   3       22263   22389   22388   22262   0.
CQUAD4   24066   3       22264   22390   22389   22263   0.
CQUAD4   24067   3       22233   22359   21651   21525   0.
CQUAD4   24068   3       22232   22358   22359   22233   0.
CQUAD4   24069   3       22231   22357   22358   22232   0.
CQUAD4   24070   3       22267   22393   22367   22241   0.
CQUAD4   24071   3       22268   22394   22393   22267   0.
CQUAD4   24072   3       22269   22395   22394   22268   0.
CQUAD4   24073   3       22230   22356   22357   22231   0.
CQUAD4   24074   3       22229   22355   22356   22230   0.
CQUAD4   24075   3       22228   22354   22355   22229   0.
CQUAD4   24076   3       22243   22369   22354   22228   0.
CQUAD4   24077   3       22242   22368   22369   22243   0.
CQUAD4   24078   3       22241   22367   22368   22242   0.
CQUAD4   24079   3       22275   22401   22375   22249   0.
CQUAD4   24080   3       22276   22402   22401   22275   0.
CQUAD4   24081   3       22277   22403   22402   22276   0.
CQUAD4   24082   3       22240   22366   22367   22241   0.
CQUAD4   24083   3       22239   22365   22366   22240   0.
CQUAD4   24084   3       22238   22364   22365   22239   0.
CQUAD4   24085   3       22251   22377   22364   22238   0.
CQUAD4   24086   3       22250   22376   22377   22251   0.
CQUAD4   24087   3       22249   22375   22376   22250   0.
CQUAD4   24088   3       22283   22409   22383   22257   0.
CQUAD4   24089   3       22284   22410   22409   22283   0.
CQUAD4   24090   3       22285   22411   22410   22284   0.
CQUAD4   24091   3       22248   22374   22375   22249   0.
CQUAD4   24092   3       22247   22373   22374   22248   0.
CQUAD4   24100   3       22261   22387   22380   22254   0.
CQUAD4   24101   3       22260   22386   22387   22261   0.
CQUAD4   24102   3       22292   22418   22398   22272   0.
CQUAD4   24103   3       22293   22419   22418   22292   0.
CQUAD4   24104   3       22294   22420   22419   22293   0.
CQUAD4   24105   3       22300   22426   21679   21553   0.
CQUAD4   24106   3       22301   22427   22426   22300   0.
CQUAD4   24107   3       21547   21673   22427   22301   0.
CQUAD4   24108   3       22266   22392   21673   21547   0.
CQUAD4   24109   3       22265   22391   22392   22266   0.
CQUAD4   24110   3       22264   22390   22391   22265   0.
CQUAD4   24111   3       22274   22400   22390   22264   0.
CQUAD4   24112   3       22273   22399   22400   22274   0.
CQUAD4   24113   3       22272   22398   22399   22273   0.
CQUAD4   24114   3       22302   22428   22406   22280   0.
CQUAD4   24115   3       22303   22429   22428   22302   0.
CQUAD4   24116   3       22304   22430   22429   22303   0.
CQUAD4   24117   3       22271   22397   22398   22272   0.
CQUAD4   24118   3       22270   22396   22397   22271   0.
CQUAD4   24119   3       22269   22395   22396   22270   0.
CQUAD4   24120   3       22282   22408   22395   22269   0.
CQUAD4   24121   3       22281   22407   22408   22282   0.
CQUAD4   24122   3       22280   22406   22407   22281   0.
CQUAD4   24123   3       22310   22436   22414   22288   0.
CQUAD4   24124   3       22311   22437   22436   22310   0.
CQUAD4   24125   3       22279   22405   22406   22280   0.
CQUAD4   24126   3       22278   22404   22405   22279   0.
CQUAD4   24127   3       22277   22403   22404   22278   0.
CQUAD4   24128   3       22290   22416   22403   22277   0.
CQUAD4   24129   3       22289   22415   22416   22290   0.
CQUAD4   24130   3       22288   22414   22415   22289   0.
CQUAD4   24131   3       22287   22413   22414   22288   0.
CQUAD4   24132   3       22286   22412   22413   22287   0.
CQUAD4   24133   3       22285   22411   22412   22286   0.
CQUAD4   24134   3       22291   22417   22411   22285   0.
CQUAD4   24135   3       22314   22440   22423   22297   0.
CQUAD4   24136   3       22315   22441   22440   22314   0.
CQUAD4   24137   3       22299   22425   21679   21553   0.
CQUAD4   24139   3       22297   22423   22424   22298   0.
CQUAD4   24140   3       22316   22442   22433   22307   0.
CQUAD4   24141   3       22296   22422   22423   22297   0.
CQUAD4   24142   3       22295   22421   22422   22296   0.
CQUAD4   24143   3       22294   22420   22421   22295   0.
CQUAD4   24144   3       22309   22435   22420   22294   0.
CQUAD4   24145   3       22308   22434   22435   22309   0.
CQUAD4   24146   3       22307   22433   22434   22308   0.
CQUAD4   24147   3       22306   22432   22433   22307   0.
CQUAD4   24148   3       22305   22431   22432   22306   0.
CQUAD4   24149   3       22304   22430   22431   22305   0.
CQUAD4   24150   3       22313   22439   22430   22304   0.
CQUAD4   24151   3       22312   22438   22439   22313   0.
CQUAD4   24152   3       22325   22451   22450   22324   0.
CQUAD4   24153   3       22326   22452   22451   22325   0.
CQUAD4   24154   3       22329   22455   22446   22320   0.
CQUAD4   24155   3       22330   22456   22455   22329   0.
CQUAD4   24156   3       22331   22457   22456   22330   0.
CQUAD4   24157   3       22321   22447   22448   22322   0.
CQUAD4   24158   3       22320   22446   22447   22321   0.
CQUAD4   24162   3       22319   22445   22446   22320   0.
CQUAD4   24163   3       22318   22444   22445   22319   0.
CQUAD4   24165   3       22352   22478   22460   22334   0.
CQUAD4   24166   3       22353   22479   22478   22352   0.
CQUAD4   24167   3       22354   22480   22479   22353   0.
CQUAD4   24168   3       22360   22486   21777   21651   0.
CQUAD4   24169   3       22361   22487   22486   22360   0.
CQUAD4   24170   3       21645   21771   22487   22361   0.
CQUAD4   24171   3       22328   22454   21771   21645   0.
CQUAD4   24172   3       22327   22453   22454   22328   0.
CQUAD4   24173   3       22326   22452   22453   22327   0.
CQUAD4   24174   3       22336   22462   22452   22326   0.
CQUAD4   24175   3       22335   22461   22462   22336   0.
CQUAD4   24176   3       22334   22460   22461   22335   0.
CQUAD4   24177   3       22362   22488   22468   22342   0.
CQUAD4   24178   3       22363   22489   22488   22362   0.
CQUAD4   24179   3       22364   22490   22489   22363   0.
CQUAD4   24180   3       22333   22459   22460   22334   0.
CQUAD4   24181   3       22332   22458   22459   22333   0.
CQUAD4   24182   3       22331   22457   22458   22332   0.
CQUAD4   24183   3       22344   22470   22457   22331   0.
CQUAD4   24184   3       22343   22469   22470   22344   0.
CQUAD4   24185   3       22342   22468   22469   22343   0.
CQUAD4   24189   3       22341   22467   22468   22342   0.
CQUAD4   24190   3       22340   22466   22467   22341   0.
CQUAD4   24201   3       22388   22514   22483   22357   0.
CQUAD4   24202   3       22389   22515   22514   22388   0.
CQUAD4   24203   3       22390   22516   22515   22389   0.
CQUAD4   24204   3       22359   22485   21777   21651   0.
CQUAD4   24205   3       22358   22484   22485   22359   0.
CQUAD4   24206   3       22357   22483   22484   22358   0.
CQUAD4   24207   3       22393   22519   22493   22367   0.
CQUAD4   24208   3       22394   22520   22519   22393   0.
CQUAD4   24209   3       22395   22521   22520   22394   0.
CQUAD4   24210   3       22356   22482   22483   22357   0.
CQUAD4   24211   3       22355   22481   22482   22356   0.
CQUAD4   24212   3       22354   22480   22481   22355   0.
CQUAD4   24213   3       22369   22495   22480   22354   0.
CQUAD4   24214   3       22368   22494   22495   22369   0.
CQUAD4   24215   3       22367   22493   22494   22368   0.
CQUAD4   24216   3       22401   22527   22501   22375   0.
CQUAD4   24217   3       22402   22528   22527   22401   0.
CQUAD4   24218   3       22403   22529   22528   22402   0.
CQUAD4   24219   3       22366   22492   22493   22367   0.
CQUAD4   24220   3       22365   22491   22492   22366   0.
CQUAD4   24221   3       22364   22490   22491   22365   0.
CQUAD4   24222   3       22377   22503   22490   22364   0.
CQUAD4   24223   3       22376   22502   22503   22377   0.
CQUAD4   24224   3       22375   22501   22502   22376   0.
CQUAD4   24225   3       22409   22535   22509   22383   0.
CQUAD4   24226   3       22410   22536   22535   22409   0.
CQUAD4   24227   3       22411   22537   22536   22410   0.
CQUAD4   24228   3       22374   22500   22501   22375   0.
CQUAD4   24229   3       22373   22499   22500   22374   0.
CQUAD4   24237   3       22387   22513   22506   22380   0.
CQUAD4   24238   3       22386   22512   22513   22387   0.
CQUAD4   24239   3       22418   22544   22524   22398   0.
CQUAD4   24240   3       22419   22545   22544   22418   0.
CQUAD4   24241   3       22420   22546   22545   22419   0.
CQUAD4   24242   3       22426   22552   21805   21679   0.
CQUAD4   24243   3       22427   22553   22552   22426   0.
CQUAD4   24244   3       21673   21799   22553   22427   0.
CQUAD4   24245   3       22392   22518   21799   21673   0.
CQUAD4   24246   3       22391   22517   22518   22392   0.
CQUAD4   24247   3       22390   22516   22517   22391   0.
CQUAD4   24248   3       22400   22526   22516   22390   0.
CQUAD4   24249   3       22399   22525   22526   22400   0.
CQUAD4   24250   3       22398   22524   22525   22399   0.
CQUAD4   24251   3       22428   22554   22532   22406   0.
CQUAD4   24252   3       22429   22555   22554   22428   0.
CQUAD4   24253   3       22430   22556   22555   22429   0.
CQUAD4   24254   3       22397   22523   22524   22398   0.
CQUAD4   24255   3       22396   22522   22523   22397   0.
CQUAD4   24256   3       22395   22521   22522   22396   0.
CQUAD4   24257   3       22408   22534   22521   22395   0.
CQUAD4   24258   3       22407   22533   22534   22408   0.
CQUAD4   24259   3       22406   22532   22533   22407   0.
CQUAD4   24260   3       22436   22562   22540   22414   0.
CQUAD4   24261   3       22437   22563   22562   22436   0.
CQUAD4   24262   3       22405   22531   22532   22406   0.
CQUAD4   24263   3       22404   22530   22531   22405   0.
CQUAD4   24264   3       22403   22529   22530   22404   0.
CQUAD4   24265   3       22416   22542   22529   22403   0.
CQUAD4   24266   3       22415   22541   22542   22416   0.
CQUAD4   24267   3       22414   22540   22541   22415   0.
CQUAD4   24268   3       22413   22539   22540   22414   0.
CQUAD4   24269   3       22412   22538   22539   22413   0.
CQUAD4   24270   3       22411   22537   22538   22412   0.
CQUAD4   24271   3       22417   22543   22537   22411   0.
CQUAD4   24272   3       22440   22566   22549   22423   0.
CQUAD4   24273   3       22441   22567   22566   22440   0.
CQUAD4   24274   3       22425   22551   21805   21679   0.
CQUAD4   24276   3       22423   22549   22550   22424   0.
CQUAD4   24277   3       22442   22568   22559   22433   0.
CQUAD4   24278   3       22422   22548   22549   22423   0.
CQUAD4   24279   3       22421   22547   22548   22422   0.
CQUAD4   24280   3       22420   22546   22547   22421   0.
CQUAD4   24281   3       22435   22561   22546   22420   0.
CQUAD4   24282   3       22434   22560   22561   22435   0.
CQUAD4   24283   3       22433   22559   22560   22434   0.
CQUAD4   24284   3       22432   22558   22559   22433   0.
CQUAD4   24285   3       22431   22557   22558   22432   0.
CQUAD4   24286   3       22430   22556   22557   22431   0.
CQUAD4   24287   3       22439   22565   22556   22430   0.
CQUAD4   24288   3       22438   22564   22565   22439   0.
CQUAD4   24289   3       22451   1642    1641    22450   0.
CQUAD4   24290   3       22452   1643    1642    22451   0.
CQUAD4   24291   3       22455   1646    1638    22446   0.
CQUAD4   24292   3       22456   1647    1646    22455   0.
CQUAD4   24293   3       22457   1648    1647    22456   0.
CQUAD4   24294   3       22447   1639    1640    22448   0.
CQUAD4   24295   3       22446   1638    1639    22447   0.
CQUAD4   24299   3       22445   1637    1638    22446   0.
CQUAD4   24300   3       22444   1636    1637    22445   0.
CQUAD4   24302   3       22478   1659    1651    22460   0.
CQUAD4   24303   3       22479   1660    1659    22478   0.
CQUAD4   24304   3       22480   1661    1660    22479   0.
CQUAD4   24305   3       22486   1412    1286    21777   0.
CQUAD4   24306   3       22487   1411    1412    22486   0.
CQUAD4   24307   3       21771   1280    1411    22487   0.
CQUAD4   24308   3       22454   1645    1280    21771   0.
CQUAD4   24309   3       22453   1644    1645    22454   0.
CQUAD4   24310   3       22452   1643    1644    22453   0.
CQUAD4   24311   3       22462   1653    1643    22452   0.
CQUAD4   24312   3       22461   1652    1653    22462   0.
CQUAD4   24313   3       22460   1651    1652    22461   0.
CQUAD4   24314   3       22488   1667    1656    22468   0.
CQUAD4   24315   3       22489   1668    1667    22488   0.
CQUAD4   24316   3       22490   1669    1668    22489   0.
CQUAD4   24317   3       22459   1650    1651    22460   0.
CQUAD4   24318   3       22458   1649    1650    22459   0.
CQUAD4   24319   3       22457   1648    1649    22458   0.
CQUAD4   24320   3       22470   1658    1648    22457   0.
CQUAD4   24321   3       22469   1657    1658    22470   0.
CQUAD4   24322   3       22468   1656    1657    22469   0.
CQUAD4   24326   3       22467   1655    1656    22468   0.
CQUAD4   24327   3       22466   1654    1655    22467   0.
CQUAD4   24338   3       22514   1687    1664    22483   0.
CQUAD4   24339   3       22515   1688    1687    22514   0.
CQUAD4   24340   3       22516   1689    1688    22515   0.
CQUAD4   24341   3       22485   1666    1286    21777   0.
CQUAD4   24342   3       22484   1665    1666    22485   0.
CQUAD4   24343   3       22483   1664    1665    22484   0.
CQUAD4   24344   3       22519   1692    1672    22493   0.
CQUAD4   24345   3       22520   1693    1692    22519   0.
CQUAD4   24346   3       22521   1694    1693    22520   0.
CQUAD4   24347   3       22482   1663    1664    22483   0.
CQUAD4   24348   3       22481   1662    1663    22482   0.
CQUAD4   24349   3       22480   1661    1662    22481   0.
CQUAD4   24350   3       22495   1674    1661    22480   0.
CQUAD4   24351   3       22494   1673    1674    22495   0.
CQUAD4   24352   3       22493   1672    1673    22494   0.
CQUAD4   24353   3       22527   1700    1677    22501   0.
CQUAD4   24354   3       22528   1701    1700    22527   0.
CQUAD4   24355   3       22529   1702    1701    22528   0.
CQUAD4   24356   3       22492   1671    1672    22493   0.
CQUAD4   24357   3       22491   1670    1671    22492   0.
CQUAD4   24358   3       22490   1669    1670    22491   0.
CQUAD4   24359   3       22503   1679    1669    22490   0.
CQUAD4   24360   3       22502   1678    1679    22503   0.
CQUAD4   24361   3       22501   1677    1678    22502   0.
CQUAD4   24362   3       22535   1708    1683    22509   0.
CQUAD4   24363   3       22536   1709    1708    22535   0.
CQUAD4   24364   3       22537   1710    1709    22536   0.
CQUAD4   24365   3       22500   1676    1677    22501   0.
CQUAD4   24366   3       22499   1675    1676    22500   0.
CQUAD4   24374   3       22513   1686    1680    22506   0.
CQUAD4   24375   3       22512   1685    1686    22513   0.
CQUAD4   24376   3       22544   1717    1697    22524   0.
CQUAD4   24377   3       22545   1718    1717    22544   0.
CQUAD4   24378   3       22546   1719    1718    22545   0.
CQUAD4   24379   3       22552   1470    1313    21805   0.
CQUAD4   24380   3       22553   1469    1470    22552   0.
CQUAD4   24381   3       21799   1307    1469    22553   0.
CQUAD4   24382   3       22518   1691    1307    21799   0.
CQUAD4   24383   3       22517   1690    1691    22518   0.
CQUAD4   24384   3       22516   1689    1690    22517   0.
CQUAD4   24385   3       22526   1699    1689    22516   0.
CQUAD4   24386   3       22525   1698    1699    22526   0.
CQUAD4   24387   3       22524   1697    1698    22525   0.
CQUAD4   24388   3       22554   1725    1705    22532   0.
CQUAD4   24389   3       22555   1726    1725    22554   0.
CQUAD4   24390   3       22556   1727    1726    22555   0.
CQUAD4   24391   3       22523   1696    1697    22524   0.
CQUAD4   24392   3       22522   1695    1696    22523   0.
CQUAD4   24393   3       22521   1694    1695    22522   0.
CQUAD4   24394   3       22534   1707    1694    22521   0.
CQUAD4   24395   3       22533   1706    1707    22534   0.
CQUAD4   24396   3       22532   1705    1706    22533   0.
CQUAD4   24397   3       22562   1733    1713    22540   0.
CQUAD4   24398   3       22563   1734    1733    22562   0.
CQUAD4   24399   3       22531   1704    1705    22532   0.
CQUAD4   24400   3       22530   1703    1704    22531   0.
CQUAD4   24401   3       22529   1702    1703    22530   0.
CQUAD4   24402   3       22542   1715    1702    22529   0.
CQUAD4   24403   3       22541   1714    1715    22542   0.
CQUAD4   24404   3       22540   1713    1714    22541   0.
CQUAD4   24405   3       22539   1712    1713    22540   0.
CQUAD4   24406   3       22538   1711    1712    22539   0.
CQUAD4   24407   3       22537   1710    1711    22538   0.
CQUAD4   24408   3       22543   1716    1710    22537   0.
CQUAD4   24409   3       22566   1737    1722    22549   0.
CQUAD4   24410   3       22567   1738    1737    22566   0.
CQUAD4   24411   3       22551   1724    1313    21805   0.
CQUAD4   24413   3       22549   1722    1723    22550   0.
CQUAD4   24414   3       22568   1739    1730    22559   0.
CQUAD4   24415   3       22548   1721    1722    22549   0.
CQUAD4   24416   3       22547   1720    1721    22548   0.
CQUAD4   24417   3       22546   1719    1720    22547   0.
CQUAD4   24418   3       22561   1732    1719    22546   0.
CQUAD4   24419   3       22560   1731    1732    22561   0.
CQUAD4   24420   3       22559   1730    1731    22560   0.
CQUAD4   24421   3       22558   1729    1730    22559   0.
CQUAD4   24422   3       22557   1728    1729    22558   0.
CQUAD4   24423   3       22556   1727    1728    22557   0.
CQUAD4   24424   3       22565   1736    1727    22556   0.
CQUAD4   24425   3       22564   1735    1736    22565   0.
CQUAD4   24426   3       11038   22569   22070   11046   0.
CQUAD4   24427   3       22569   22570   22196   22070   0.
CQUAD4   24428   3       22570   22571   22322   22196   0.
CQUAD4   24429   3       22571   22572   22448   22322   0.
CQUAD4   24430   3       22572   1740    1640    22448   0.
CQUAD4   24431   3       11053   22072   22573   11035   0.
CQUAD4   24432   3       22072   22198   22574   22573   0.
CQUAD4   24433   3       22198   22324   22575   22574   0.
CQUAD4   24434   3       22324   22450   22576   22575   0.
CQUAD4   24435   3       22450   1641    1741    22576   0.
CQUAD4   24436   3       11018   11054   22577   21911   0.
CQUAD4   24437   3       11054   11040   22578   22577   0.
CQUAD4   24438   3       11040   11035   22573   22578   0.
CQUAD4   24439   3       11035   11036   22579   22573   0.
CQUAD4   24440   3       11036   11037   22580   22579   0.
CQUAD4   24441   3       11037   11038   22569   22580   0.
CQUAD4   24442   3       11038   11039   22581   22569   0.
CQUAD4   24443   3       11039   11045   22582   22581   0.
CQUAD4   24444   3       11045   11186   22583   22582   0.
CQUAD4   24445   3       21911   22577   22584   21918   0.
CQUAD4   24446   3       22577   22578   22585   22584   0.
CQUAD4   24447   3       22578   22573   22574   22585   0.
CQUAD4   24448   3       22573   22579   22586   22574   0.
CQUAD4   24449   3       22579   22580   22587   22586   0.
CQUAD4   24450   3       22580   22569   22570   22587   0.
CQUAD4   24451   3       22569   22581   22588   22570   0.
CQUAD4   24452   3       22581   22582   22589   22588   0.
CQUAD4   24453   3       22582   22583   22590   22589   0.
CQUAD4   24454   3       21918   22584   22591   21925   0.
CQUAD4   24455   3       22584   22585   22592   22591   0.
CQUAD4   24456   3       22585   22574   22575   22592   0.
CQUAD4   24457   3       22574   22586   22593   22575   0.
CQUAD4   24458   3       22586   22587   22594   22593   0.
CQUAD4   24459   3       22587   22570   22571   22594   0.
CQUAD4   24460   3       22570   22588   22595   22571   0.
CQUAD4   24461   3       22588   22589   22596   22595   0.
CQUAD4   24462   3       22589   22590   22597   22596   0.
CQUAD4   24463   3       21925   22591   22598   21932   0.
CQUAD4   24464   3       22591   22592   22599   22598   0.
CQUAD4   24465   3       22592   22575   22576   22599   0.
CQUAD4   24466   3       22575   22593   22600   22576   0.
CQUAD4   24467   3       22593   22594   22601   22600   0.
CQUAD4   24468   3       22594   22571   22572   22601   0.
CQUAD4   24469   3       22571   22595   22602   22572   0.
CQUAD4   24470   3       22595   22596   22603   22602   0.
CQUAD4   24471   3       22596   22597   22604   22603   0.
CQUAD4   24472   3       21932   22598   1742    1369    0.
CQUAD4   24473   3       22598   22599   1743    1742    0.
CQUAD4   24474   3       22599   22576   1741    1743    0.
CQUAD4   24475   3       22576   22600   1744    1741    0.
CQUAD4   24476   3       22600   22601   1745    1744    0.
CQUAD4   24477   3       22601   22572   1740    1745    0.
CQUAD4   24478   3       22572   22602   1746    1740    0.
CQUAD4   24479   3       22602   22603   1747    1746    0.
CQUAD4   24480   3       22603   22604   1748    1747    0.
CQUAD4   24481   3       11116   22134   22605   11112   0.
CQUAD4   24482   3       22134   22260   22606   22605   0.
CQUAD4   24483   3       22260   22386   22607   22606   0.
CQUAD4   24484   3       22386   22512   22608   22607   0.
CQUAD4   24485   3       22512   1685    1749    22608   0.
CQUAD4   24486   3       11151   22165   22609   11152   0.
CQUAD4   24487   3       22165   22291   22610   22609   0.
CQUAD4   24488   3       22291   22417   22611   22610   0.
CQUAD4   24489   3       22417   22543   22612   22611   0.
CQUAD4   24490   3       22543   1716    1750    22612   0.
CQUAD4   24491   3       11174   11173   22613   22185   0.
CQUAD4   24492   3       22185   22613   22614   22311   0.
CQUAD4   24493   3       22311   22614   22615   22437   0.
CQUAD4   24494   3       22437   22615   22616   22563   0.
CQUAD4   24495   3       22563   22616   1751    1734    0.
CQUAD4   24496   3       11177   11188   22617   22186   0.
CQUAD4   24497   3       22186   22617   22618   22312   0.
CQUAD4   24498   3       22312   22618   22619   22438   0.
CQUAD4   24499   3       22438   22619   22620   22564   0.
CQUAD4   24500   3       22564   22620   1752    1735    0.
CQUAD4   24501   3       11185   11196   22621   22190   0.
CQUAD4   24502   3       22190   22621   22622   22316   0.
CQUAD4   24503   3       22316   22622   22623   22442   0.
CQUAD4   24504   3       22442   22623   22624   22568   0.
CQUAD4   24505   3       22568   22624   1753    1739    0.
CQUAD4   24506   3       11183   11189   22625   22189   0.
CQUAD4   24507   3       22189   22625   22626   22315   0.
CQUAD4   24508   3       22315   22626   22627   22441   0.
CQUAD4   24509   3       22441   22627   22628   22567   0.
CQUAD4   24510   3       22567   22628   1754    1738    0.
CQUAD4   24511   3       11114   11113   22629   22630   0.
CQUAD4   24512   3       11113   11187   22631   22629   0.
CQUAD4   24513   3       11187   11112   22605   22631   0.
CQUAD4   24514   3       11112   11150   22632   22605   0.
CQUAD4   24515   3       11150   11149   22633   22632   0.
CQUAD4   24516   3       11149   11148   22634   22633   0.
CQUAD4   24517   3       11148   11146   22635   22634   0.
CQUAD4   24518   3       11146   11147   22636   22635   0.
CQUAD4   24519   3       11147   11152   22609   22636   0.
CQUAD4   24520   3       11152   11179   22637   22609   0.
CQUAD4   24521   3       11179   11180   22638   22637   0.
CQUAD4   24522   3       11180   11178   22639   22638   0.
CQUAD4   24523   3       11178   11181   22640   22639   0.
CQUAD4   24524   3       11181   11182   22641   22640   0.
CQUAD4   24525   3       11182   11173   22613   22641   0.
CQUAD4   24526   3       11173   11172   22642   22613   0.
CQUAD4   24527   3       11172   11171   22643   22642   0.
CQUAD4   24528   3       11171   11188   22617   22643   0.
CQUAD4   24529   3       11188   11201   22644   22617   0.
CQUAD4   24530   3       11201   11200   22645   22644   0.
CQUAD4   24531   3       11200   11197   22646   22645   0.
CQUAD4   24532   3       11197   11199   22647   22646   0.
CQUAD4   24533   3       11199   11198   22648   22647   0.
CQUAD4   24534   3       11198   11196   22621   22648   0.
CQUAD4   24535   3       11196   11192   22649   22621   0.
CQUAD4   24536   3       11192   11191   22650   22649   0.
CQUAD4   24537   3       11191   11193   22651   22650   0.
CQUAD4   24538   3       11193   11194   22652   22651   0.
CQUAD4   24539   3       11194   11195   22653   22652   0.
CQUAD4   24540   3       11195   11189   22625   22653   0.
CQUAD4   24541   3       11189   11202   22654   22625   0.
CQUAD4   24542   3       11202   11190   22655   22654   0.
CQUAD4   24543   3       11190   10946   21958   22655   0.
CQUAD4   24544   3       22630   22629   22656   22657   0.
CQUAD4   24545   3       22629   22631   22658   22656   0.
CQUAD4   24546   3       22631   22605   22606   22658   0.
CQUAD4   24547   3       22605   22632   22659   22606   0.
CQUAD4   24548   3       22632   22633   22660   22659   0.
CQUAD4   24549   3       22633   22634   22661   22660   0.
CQUAD4   24550   3       22634   22635   22662   22661   0.
CQUAD4   24551   3       22635   22636   22663   22662   0.
CQUAD4   24552   3       22636   22609   22610   22663   0.
CQUAD4   24553   3       22609   22637   22664   22610   0.
CQUAD4   24554   3       22637   22638   22665   22664   0.
CQUAD4   24555   3       22638   22639   22666   22665   0.
CQUAD4   24556   3       22639   22640   22667   22666   0.
CQUAD4   24557   3       22640   22641   22668   22667   0.
CQUAD4   24558   3       22641   22613   22614   22668   0.
CQUAD4   24559   3       22613   22642   22669   22614   0.
CQUAD4   24560   3       22642   22643   22670   22669   0.
CQUAD4   24561   3       22643   22617   22618   22670   0.
CQUAD4   24562   3       22617   22644   22671   22618   0.
CQUAD4   24563   3       22644   22645   22672   22671   0.
CQUAD4   24564   3       22645   22646   22673   22672   0.
CQUAD4   24565   3       22646   22647   22674   22673   0.
CQUAD4   24566   3       22647   22648   22675   22674   0.
CQUAD4   24567   3       22648   22621   22622   22675   0.
CQUAD4   24568   3       22621   22649   22676   22622   0.
CQUAD4   24569   3       22649   22650   22677   22676   0.
CQUAD4   24570   3       22650   22651   22678   22677   0.
CQUAD4   24571   3       22651   22652   22679   22678   0.
CQUAD4   24572   3       22652   22653   22680   22679   0.
CQUAD4   24573   3       22653   22625   22626   22680   0.
CQUAD4   24574   3       22625   22654   22681   22626   0.
CQUAD4   24575   3       22654   22655   22682   22681   0.
CQUAD4   24576   3       22655   21958   21985   22682   0.
CQUAD4   24577   3       22657   22656   22683   22684   0.
CQUAD4   24578   3       22656   22658   22685   22683   0.
CQUAD4   24579   3       22658   22606   22607   22685   0.
CQUAD4   24580   3       22606   22659   22686   22607   0.
CQUAD4   24581   3       22659   22660   22687   22686   0.
CQUAD4   24582   3       22660   22661   22688   22687   0.
CQUAD4   24583   3       22661   22662   22689   22688   0.
CQUAD4   24584   3       22662   22663   22690   22689   0.
CQUAD4   24585   3       22663   22610   22611   22690   0.
CQUAD4   24586   3       22610   22664   22691   22611   0.
CQUAD4   24587   3       22664   22665   22692   22691   0.
CQUAD4   24588   3       22665   22666   22693   22692   0.
CQUAD4   24589   3       22666   22667   22694   22693   0.
CQUAD4   24590   3       22667   22668   22695   22694   0.
CQUAD4   24591   3       22668   22614   22615   22695   0.
CQUAD4   24592   3       22614   22669   22696   22615   0.
CQUAD4   24593   3       22669   22670   22697   22696   0.
CQUAD4   24594   3       22670   22618   22619   22697   0.
CQUAD4   24595   3       22618   22671   22698   22619   0.
CQUAD4   24596   3       22671   22672   22699   22698   0.
CQUAD4   24597   3       22672   22673   22700   22699   0.
CQUAD4   24598   3       22673   22674   22701   22700   0.
CQUAD4   24599   3       22674   22675   22702   22701   0.
CQUAD4   24600   3       22675   22622   22623   22702   0.
CQUAD4   24601   3       22622   22676   22703   22623   0.
CQUAD4   24602   3       22676   22677   22704   22703   0.
CQUAD4   24603   3       22677   22678   22705   22704   0.
CQUAD4   24604   3       22678   22679   22706   22705   0.
CQUAD4   24605   3       22679   22680   22707   22706   0.
CQUAD4   24606   3       22680   22626   22627   22707   0.
CQUAD4   24607   3       22626   22681   22708   22627   0.
CQUAD4   24608   3       22681   22682   22709   22708   0.
CQUAD4   24609   3       22682   21985   22012   22709   0.
CQUAD4   24610   3       22684   22683   22710   22711   0.
CQUAD4   24611   3       22683   22685   22712   22710   0.
CQUAD4   24612   3       22685   22607   22608   22712   0.
CQUAD4   24613   3       22607   22686   22713   22608   0.
CQUAD4   24614   3       22686   22687   22714   22713   0.
CQUAD4   24615   3       22687   22688   22715   22714   0.
CQUAD4   24616   3       22688   22689   22716   22715   0.
CQUAD4   24617   3       22689   22690   22717   22716   0.
CQUAD4   24618   3       22690   22611   22612   22717   0.
CQUAD4   24619   3       22611   22691   22718   22612   0.
CQUAD4   24620   3       22691   22692   22719   22718   0.
CQUAD4   24621   3       22692   22693   22720   22719   0.
CQUAD4   24622   3       22693   22694   22721   22720   0.
CQUAD4   24623   3       22694   22695   22722   22721   0.
CQUAD4   24624   3       22695   22615   22616   22722   0.
CQUAD4   24625   3       22615   22696   22723   22616   0.
CQUAD4   24626   3       22696   22697   22724   22723   0.
CQUAD4   24627   3       22697   22619   22620   22724   0.
CQUAD4   24628   3       22619   22698   22725   22620   0.
CQUAD4   24629   3       22698   22699   22726   22725   0.
CQUAD4   24630   3       22699   22700   22727   22726   0.
CQUAD4   24631   3       22700   22701   22728   22727   0.
CQUAD4   24632   3       22701   22702   22729   22728   0.
CQUAD4   24633   3       22702   22623   22624   22729   0.
CQUAD4   24634   3       22623   22703   22730   22624   0.
CQUAD4   24635   3       22703   22704   22731   22730   0.
CQUAD4   24636   3       22704   22705   22732   22731   0.
CQUAD4   24637   3       22705   22706   22733   22732   0.
CQUAD4   24638   3       22706   22707   22734   22733   0.
CQUAD4   24639   3       22707   22627   22628   22734   0.
CQUAD4   24640   3       22627   22708   22735   22628   0.
CQUAD4   24641   3       22708   22709   22736   22735   0.
CQUAD4   24642   3       22709   22012   22039   22736   0.
CQUAD4   24643   3       22711   22710   1755    1756    0.
CQUAD4   24644   3       22710   22712   1757    1755    0.
CQUAD4   24645   3       22712   22608   1749    1757    0.
CQUAD4   24646   3       22608   22713   1758    1749    0.
CQUAD4   24647   3       22713   22714   1759    1758    0.
CQUAD4   24648   3       22714   22715   1760    1759    0.
CQUAD4   24649   3       22715   22716   1761    1760    0.
CQUAD4   24650   3       22716   22717   1762    1761    0.
CQUAD4   24651   3       22717   22612   1750    1762    0.
CQUAD4   24652   3       22612   22718   1763    1750    0.
CQUAD4   24653   3       22718   22719   1764    1763    0.
CQUAD4   24654   3       22719   22720   1765    1764    0.
CQUAD4   24655   3       22720   22721   1766    1765    0.
CQUAD4   24656   3       22721   22722   1767    1766    0.
CQUAD4   24657   3       22722   22616   1751    1767    0.
CQUAD4   24658   3       22616   22723   1768    1751    0.
CQUAD4   24659   3       22723   22724   1769    1768    0.
CQUAD4   24660   3       22724   22620   1752    1769    0.
CQUAD4   24661   3       22620   22725   1770    1752    0.
CQUAD4   24662   3       22725   22726   1771    1770    0.
CQUAD4   24663   3       22726   22727   1772    1771    0.
CQUAD4   24664   3       22727   22728   1773    1772    0.
CQUAD4   24665   3       22728   22729   1774    1773    0.
CQUAD4   24666   3       22729   22624   1753    1774    0.
CQUAD4   24667   3       22624   22730   1775    1753    0.
CQUAD4   24668   3       22730   22731   1776    1775    0.
CQUAD4   24669   3       22731   22732   1777    1776    0.
CQUAD4   24670   3       22732   22733   1778    1777    0.
CQUAD4   24671   3       22733   22734   1779    1778    0.
CQUAD4   24672   3       22734   22628   1754    1779    0.
CQUAD4   24673   3       22628   22735   1780    1754    0.
CQUAD4   24674   3       22735   22736   1781    1780    0.
CQUAD4   24675   3       22736   22039   1377    1781    0.
CQUAD4   24676   3       11218   22743   22742   11219   0.
CQUAD4   24677   3       11217   22744   22743   11218   0.
CQUAD4   24678   3       11226   22747   22739   11209   0.
CQUAD4   24679   3       11225   22748   22747   11226   0.
CQUAD4   24680   3       11224   22749   22748   11225   0.
CQUAD4   24681   3       11214   22740   22741   11213   0.
CQUAD4   24682   3       11209   22739   22740   11214   0.
CQUAD4   24683   3       11234   22755   20006   10143   0.
CQUAD4   24684   3       11233   22756   22755   11234   0.
CQUAD4   24685   3       11232   22757   22756   11233   0.
CQUAD4   24686   3       11210   22738   22739   11209   0.
CQUAD4   24687   3       11211   22737   22738   11210   0.
CQUAD4   24688   3       10029   20003   22737   11211   0.
CQUAD4   24689   3       11247   22768   22752   11221   0.
CQUAD4   24690   3       11246   22769   22768   11247   0.
CQUAD4   24696   3       11216   22745   22746   11215   0.
CQUAD4   24697   3       11217   22744   22745   11216   0.
CQUAD4   24698   3       11227   22754   22744   11217   0.
CQUAD4   24699   3       11228   22753   22754   11227   0.
CQUAD4   24700   3       11221   22752   22753   11228   0.
CQUAD4   24701   3       11257   22778   22760   11229   0.
CQUAD4   24702   3       11256   22779   22778   11257   0.
CQUAD4   24703   3       11255   22780   22779   11256   0.
CQUAD4   24704   3       11222   22751   22752   11221   0.
CQUAD4   24705   3       11223   22750   22751   11222   0.
CQUAD4   24706   3       11224   22749   22750   11223   0.
CQUAD4   24707   3       11235   22762   22749   11224   0.
CQUAD4   24708   3       11236   22761   22762   11235   0.
CQUAD4   24709   3       11229   22760   22761   11236   0.
CQUAD4   24710   3       11265   22786   22765   11237   0.
CQUAD4   24711   3       11264   22787   22786   11265   0.
CQUAD4   24712   3       11263   22788   22787   11264   0.
CQUAD4   24713   3       11230   22759   22760   11229   0.
CQUAD4   24714   3       11231   22758   22759   11230   0.
CQUAD4   24715   3       11232   22757   22758   11231   0.
CQUAD4   24716   3       11240   22767   22757   11232   0.
CQUAD4   24717   3       11241   22766   22767   11240   0.
CQUAD4   24718   3       11237   22765   22766   11241   0.
CQUAD4   24719   3       11273   22794   20008   10386   0.
CQUAD4   24720   3       11272   22795   22794   11273   0.
CQUAD4   24721   3       11271   22796   22795   11272   0.
CQUAD4   24722   3       11238   22764   22765   11237   0.
CQUAD4   24723   3       11239   22763   22764   11238   0.
CQUAD4   24724   3       10245   20007   22763   11239   0.
CQUAD4   24740   3       11298   22817   22791   11260   0.
CQUAD4   24741   3       11297   22818   22817   11298   0.
CQUAD4   24742   3       11296   22819   22818   11297   0.
CQUAD4   24744   3       11254   22781   22782   11253   0.
CQUAD4   24745   3       11255   22780   22781   11254   0.
CQUAD4   24746   3       11266   22793   22780   11255   0.
CQUAD4   24747   3       11267   22792   22793   11266   0.
CQUAD4   24748   3       11260   22791   22792   11267   0.
CQUAD4   24749   3       11306   22825   22799   11268   0.
CQUAD4   24750   3       11305   22826   22825   11306   0.
CQUAD4   24751   3       11304   22827   22826   11305   0.
CQUAD4   24752   3       11261   22790   22791   11260   0.
CQUAD4   24753   3       11262   22789   22790   11261   0.
CQUAD4   24754   3       11263   22788   22789   11262   0.
CQUAD4   24755   3       11274   22801   22788   11263   0.
CQUAD4   24756   3       11275   22800   22801   11274   0.
CQUAD4   24757   3       11268   22799   22800   11275   0.
CQUAD4   24758   3       11269   22798   22799   11268   0.
CQUAD4   24759   3       11270   22797   22798   11269   0.
CQUAD4   24760   3       11271   22796   22797   11270   0.
CQUAD4   24761   3       11278   22803   22796   11271   0.
CQUAD4   24762   3       11279   22802   22803   11278   0.
CQUAD4   24775   3       11331   22844   22822   11293   0.
CQUAD4   24776   3       11330   22845   22844   11331   0.
CQUAD4   24777   3       11329   22846   22845   11330   0.
CQUAD4   24783   3       11293   22822   22823   11300   0.
CQUAD4   24784   3       11338   22852   22830   11301   0.
CQUAD4   24785   3       11337   22853   22852   11338   0.
CQUAD4   24786   3       11294   22821   22822   11293   0.
CQUAD4   24787   3       11295   22820   22821   11294   0.
CQUAD4   24788   3       11296   22819   22820   11295   0.
CQUAD4   24789   3       11307   22832   22819   11296   0.
CQUAD4   24790   3       11308   22831   22832   11307   0.
CQUAD4   24791   3       11301   22830   22831   11308   0.
CQUAD4   24792   3       11302   22829   22830   11301   0.
CQUAD4   24793   3       11303   22828   22829   11302   0.
CQUAD4   24794   3       11304   22827   22828   11303   0.
CQUAD4   24795   3       11314   22833   22827   11304   0.
CQUAD4   24801   3       11348   22858   22849   11326   0.
CQUAD4   24807   3       11326   22849   22850   11333   0.
CQUAD4   24808   3       11327   22848   22849   11326   0.
CQUAD4   24809   3       11328   22847   22848   11327   0.
CQUAD4   24810   3       11329   22846   22847   11328   0.
CQUAD4   24811   3       11339   22855   22846   11329   0.
CQUAD4   24812   3       11340   22854   22855   11339   0.
CQUAD4   24813   3       22743   22865   22864   22742   0.
CQUAD4   24814   3       22744   22866   22865   22743   0.
CQUAD4   24815   3       22747   22869   22861   22739   0.
CQUAD4   24816   3       22748   22870   22869   22747   0.
CQUAD4   24817   3       22749   22871   22870   22748   0.
CQUAD4   24818   3       22740   22862   22863   22741   0.
CQUAD4   24819   3       22739   22861   22862   22740   0.
CQUAD4   24820   3       22755   22877   20014   20006   0.
CQUAD4   24821   3       22756   22878   22877   22755   0.
CQUAD4   24822   3       22757   22879   22878   22756   0.
CQUAD4   24823   3       22738   22860   22861   22739   0.
CQUAD4   24824   3       22737   22859   22860   22738   0.
CQUAD4   24825   3       20003   20011   22859   22737   0.
CQUAD4   24826   3       22768   22890   22874   22752   0.
CQUAD4   24827   3       22769   22891   22890   22768   0.
CQUAD4   24833   3       22745   22867   22868   22746   0.
CQUAD4   24834   3       22744   22866   22867   22745   0.
CQUAD4   24835   3       22754   22876   22866   22744   0.
CQUAD4   24836   3       22753   22875   22876   22754   0.
CQUAD4   24837   3       22752   22874   22875   22753   0.
CQUAD4   24838   3       22778   22900   22882   22760   0.
CQUAD4   24839   3       22779   22901   22900   22778   0.
CQUAD4   24840   3       22780   22902   22901   22779   0.
CQUAD4   24841   3       22751   22873   22874   22752   0.
CQUAD4   24842   3       22750   22872   22873   22751   0.
CQUAD4   24843   3       22749   22871   22872   22750   0.
CQUAD4   24844   3       22762   22884   22871   22749   0.
CQUAD4   24845   3       22761   22883   22884   22762   0.
CQUAD4   24846   3       22760   22882   22883   22761   0.
CQUAD4   24847   3       22786   22908   22887   22765   0.
CQUAD4   24848   3       22787   22909   22908   22786   0.
CQUAD4   24849   3       22788   22910   22909   22787   0.
CQUAD4   24850   3       22759   22881   22882   22760   0.
CQUAD4   24851   3       22758   22880   22881   22759   0.
CQUAD4   24852   3       22757   22879   22880   22758   0.
CQUAD4   24853   3       22767   22889   22879   22757   0.
CQUAD4   24854   3       22766   22888   22889   22767   0.
CQUAD4   24855   3       22765   22887   22888   22766   0.
CQUAD4   24856   3       22794   22916   20016   20008   0.
CQUAD4   24857   3       22795   22917   22916   22794   0.
CQUAD4   24858   3       22796   22918   22917   22795   0.
CQUAD4   24859   3       22764   22886   22887   22765   0.
CQUAD4   24860   3       22763   22885   22886   22764   0.
CQUAD4   24861   3       20007   20015   22885   22763   0.
CQUAD4   24877   3       22817   22939   22913   22791   0.
CQUAD4   24878   3       22818   22940   22939   22817   0.
CQUAD4   24879   3       22819   22941   22940   22818   0.
CQUAD4   24881   3       22781   22903   22904   22782   0.
CQUAD4   24882   3       22780   22902   22903   22781   0.
CQUAD4   24883   3       22793   22915   22902   22780   0.
CQUAD4   24884   3       22792   22914   22915   22793   0.
CQUAD4   24885   3       22791   22913   22914   22792   0.
CQUAD4   24886   3       22825   22947   22921   22799   0.
CQUAD4   24887   3       22826   22948   22947   22825   0.
CQUAD4   24888   3       22827   22949   22948   22826   0.
CQUAD4   24889   3       22790   22912   22913   22791   0.
CQUAD4   24890   3       22789   22911   22912   22790   0.
CQUAD4   24891   3       22788   22910   22911   22789   0.
CQUAD4   24892   3       22801   22923   22910   22788   0.
CQUAD4   24893   3       22800   22922   22923   22801   0.
CQUAD4   24894   3       22799   22921   22922   22800   0.
CQUAD4   24895   3       22798   22920   22921   22799   0.
CQUAD4   24896   3       22797   22919   22920   22798   0.
CQUAD4   24897   3       22796   22918   22919   22797   0.
CQUAD4   24898   3       22803   22925   22918   22796   0.
CQUAD4   24899   3       22802   22924   22925   22803   0.
CQUAD4   24912   3       22844   22966   22944   22822   0.
CQUAD4   24913   3       22845   22967   22966   22844   0.
CQUAD4   24914   3       22846   22968   22967   22845   0.
CQUAD4   24920   3       22822   22944   22945   22823   0.
CQUAD4   24921   3       22852   22974   22952   22830   0.
CQUAD4   24922   3       22853   22975   22974   22852   0.
CQUAD4   24923   3       22821   22943   22944   22822   0.
CQUAD4   24924   3       22820   22942   22943   22821   0.
CQUAD4   24925   3       22819   22941   22942   22820   0.
CQUAD4   24926   3       22832   22954   22941   22819   0.
CQUAD4   24927   3       22831   22953   22954   22832   0.
CQUAD4   24928   3       22830   22952   22953   22831   0.
CQUAD4   24929   3       22829   22951   22952   22830   0.
CQUAD4   24930   3       22828   22950   22951   22829   0.
CQUAD4   24931   3       22827   22949   22950   22828   0.
CQUAD4   24932   3       22833   22955   22949   22827   0.
CQUAD4   24938   3       22858   22980   22971   22849   0.
CQUAD4   24944   3       22849   22971   22972   22850   0.
CQUAD4   24945   3       22848   22970   22971   22849   0.
CQUAD4   24946   3       22847   22969   22970   22848   0.
CQUAD4   24947   3       22846   22968   22969   22847   0.
CQUAD4   24948   3       22855   22977   22968   22846   0.
CQUAD4   24949   3       22854   22976   22977   22855   0.
CQUAD4   24950   3       22865   22987   22986   22864   0.
CQUAD4   24951   3       22866   22988   22987   22865   0.
CQUAD4   24952   3       22869   22991   22983   22861   0.
CQUAD4   24953   3       22870   22992   22991   22869   0.
CQUAD4   24954   3       22871   22993   22992   22870   0.
CQUAD4   24955   3       22862   22984   22985   22863   0.
CQUAD4   24956   3       22861   22983   22984   22862   0.
CQUAD4   24957   3       22877   22999   20022   20014   0.
CQUAD4   24958   3       22878   23000   22999   22877   0.
CQUAD4   24959   3       22879   23001   23000   22878   0.
CQUAD4   24960   3       22860   22982   22983   22861   0.
CQUAD4   24961   3       22859   22981   22982   22860   0.
CQUAD4   24962   3       20011   20019   22981   22859   0.
CQUAD4   24963   3       22890   23012   22996   22874   0.
CQUAD4   24964   3       22891   23013   23012   22890   0.
CQUAD4   24970   3       22867   22989   22990   22868   0.
CQUAD4   24971   3       22866   22988   22989   22867   0.
CQUAD4   24972   3       22876   22998   22988   22866   0.
CQUAD4   24973   3       22875   22997   22998   22876   0.
CQUAD4   24974   3       22874   22996   22997   22875   0.
CQUAD4   24975   3       22900   23022   23004   22882   0.
CQUAD4   24976   3       22901   23023   23022   22900   0.
CQUAD4   24977   3       22902   23024   23023   22901   0.
CQUAD4   24978   3       22873   22995   22996   22874   0.
CQUAD4   24979   3       22872   22994   22995   22873   0.
CQUAD4   24980   3       22871   22993   22994   22872   0.
CQUAD4   24981   3       22884   23006   22993   22871   0.
CQUAD4   24982   3       22883   23005   23006   22884   0.
CQUAD4   24983   3       22882   23004   23005   22883   0.
CQUAD4   24984   3       22908   23030   23009   22887   0.
CQUAD4   24985   3       22909   23031   23030   22908   0.
CQUAD4   24986   3       22910   23032   23031   22909   0.
CQUAD4   24987   3       22881   23003   23004   22882   0.
CQUAD4   24988   3       22880   23002   23003   22881   0.
CQUAD4   24989   3       22879   23001   23002   22880   0.
CQUAD4   24990   3       22889   23011   23001   22879   0.
CQUAD4   24991   3       22888   23010   23011   22889   0.
CQUAD4   24992   3       22887   23009   23010   22888   0.
CQUAD4   24993   3       22916   23038   20024   20016   0.
CQUAD4   24994   3       22917   23039   23038   22916   0.
CQUAD4   24995   3       22918   23040   23039   22917   0.
CQUAD4   24996   3       22886   23008   23009   22887   0.
CQUAD4   24997   3       22885   23007   23008   22886   0.
CQUAD4   24998   3       20015   20023   23007   22885   0.
CQUAD4   25014   3       22939   23061   23035   22913   0.
CQUAD4   25015   3       22940   23062   23061   22939   0.
CQUAD4   25016   3       22941   23063   23062   22940   0.
CQUAD4   25018   3       22903   23025   23026   22904   0.
CQUAD4   25019   3       22902   23024   23025   22903   0.
CQUAD4   25020   3       22915   23037   23024   22902   0.
CQUAD4   25021   3       22914   23036   23037   22915   0.
CQUAD4   25022   3       22913   23035   23036   22914   0.
CQUAD4   25023   3       22947   23069   23043   22921   0.
CQUAD4   25024   3       22948   23070   23069   22947   0.
CQUAD4   25025   3       22949   23071   23070   22948   0.
CQUAD4   25026   3       22912   23034   23035   22913   0.
CQUAD4   25027   3       22911   23033   23034   22912   0.
CQUAD4   25028   3       22910   23032   23033   22911   0.
CQUAD4   25029   3       22923   23045   23032   22910   0.
CQUAD4   25030   3       22922   23044   23045   22923   0.
CQUAD4   25031   3       22921   23043   23044   22922   0.
CQUAD4   25032   3       22920   23042   23043   22921   0.
CQUAD4   25033   3       22919   23041   23042   22920   0.
CQUAD4   25034   3       22918   23040   23041   22919   0.
CQUAD4   25035   3       22925   23047   23040   22918   0.
CQUAD4   25036   3       22924   23046   23047   22925   0.
CQUAD4   25049   3       22966   23088   23066   22944   0.
CQUAD4   25050   3       22967   23089   23088   22966   0.
CQUAD4   25051   3       22968   23090   23089   22967   0.
CQUAD4   25057   3       22944   23066   23067   22945   0.
CQUAD4   25058   3       22974   23096   23074   22952   0.
CQUAD4   25059   3       22975   23097   23096   22974   0.
CQUAD4   25060   3       22943   23065   23066   22944   0.
CQUAD4   25061   3       22942   23064   23065   22943   0.
CQUAD4   25062   3       22941   23063   23064   22942   0.
CQUAD4   25063   3       22954   23076   23063   22941   0.
CQUAD4   25064   3       22953   23075   23076   22954   0.
CQUAD4   25065   3       22952   23074   23075   22953   0.
CQUAD4   25066   3       22951   23073   23074   22952   0.
CQUAD4   25067   3       22950   23072   23073   22951   0.
CQUAD4   25068   3       22949   23071   23072   22950   0.
CQUAD4   25069   3       22955   23077   23071   22949   0.
CQUAD4   25075   3       22980   23102   23093   22971   0.
CQUAD4   25081   3       22971   23093   23094   22972   0.
CQUAD4   25082   3       22970   23092   23093   22971   0.
CQUAD4   25083   3       22969   23091   23092   22970   0.
CQUAD4   25084   3       22968   23090   23091   22969   0.
CQUAD4   25085   3       22977   23099   23090   22968   0.
CQUAD4   25086   3       22976   23098   23099   22977   0.
CQUAD4   25087   3       22987   23109   23108   22986   0.
CQUAD4   25088   3       22988   23110   23109   22987   0.
CQUAD4   25089   3       22991   23113   23105   22983   0.
CQUAD4   25090   3       22992   23114   23113   22991   0.
CQUAD4   25091   3       22993   23115   23114   22992   0.
CQUAD4   25092   3       22984   23106   23107   22985   0.
CQUAD4   25093   3       22983   23105   23106   22984   0.
CQUAD4   25094   3       22999   23121   20030   20022   0.
CQUAD4   25095   3       23000   23122   23121   22999   0.
CQUAD4   25096   3       23001   23123   23122   23000   0.
CQUAD4   25097   3       22982   23104   23105   22983   0.
CQUAD4   25098   3       22981   23103   23104   22982   0.
CQUAD4   25099   3       20019   20027   23103   22981   0.
CQUAD4   25100   3       23012   23134   23118   22996   0.
CQUAD4   25101   3       23013   23135   23134   23012   0.
CQUAD4   25107   3       22989   23111   23112   22990   0.
CQUAD4   25108   3       22988   23110   23111   22989   0.
CQUAD4   25109   3       22998   23120   23110   22988   0.
CQUAD4   25110   3       22997   23119   23120   22998   0.
CQUAD4   25111   3       22996   23118   23119   22997   0.
CQUAD4   25112   3       23022   23144   23126   23004   0.
CQUAD4   25113   3       23023   23145   23144   23022   0.
CQUAD4   25114   3       23024   23146   23145   23023   0.
CQUAD4   25115   3       22995   23117   23118   22996   0.
CQUAD4   25116   3       22994   23116   23117   22995   0.
CQUAD4   25117   3       22993   23115   23116   22994   0.
CQUAD4   25118   3       23006   23128   23115   22993   0.
CQUAD4   25119   3       23005   23127   23128   23006   0.
CQUAD4   25120   3       23004   23126   23127   23005   0.
CQUAD4   25121   3       23030   23152   23131   23009   0.
CQUAD4   25122   3       23031   23153   23152   23030   0.
CQUAD4   25123   3       23032   23154   23153   23031   0.
CQUAD4   25124   3       23003   23125   23126   23004   0.
CQUAD4   25125   3       23002   23124   23125   23003   0.
CQUAD4   25126   3       23001   23123   23124   23002   0.
CQUAD4   25127   3       23011   23133   23123   23001   0.
CQUAD4   25128   3       23010   23132   23133   23011   0.
CQUAD4   25129   3       23009   23131   23132   23010   0.
CQUAD4   25130   3       23038   23160   20032   20024   0.
CQUAD4   25131   3       23039   23161   23160   23038   0.
CQUAD4   25132   3       23040   23162   23161   23039   0.
CQUAD4   25133   3       23008   23130   23131   23009   0.
CQUAD4   25134   3       23007   23129   23130   23008   0.
CQUAD4   25135   3       20023   20031   23129   23007   0.
CQUAD4   25151   3       23061   23183   23157   23035   0.
CQUAD4   25152   3       23062   23184   23183   23061   0.
CQUAD4   25153   3       23063   23185   23184   23062   0.
CQUAD4   25155   3       23025   23147   23148   23026   0.
CQUAD4   25156   3       23024   23146   23147   23025   0.
CQUAD4   25157   3       23037   23159   23146   23024   0.
CQUAD4   25158   3       23036   23158   23159   23037   0.
CQUAD4   25159   3       23035   23157   23158   23036   0.
CQUAD4   25160   3       23069   23191   23165   23043   0.
CQUAD4   25161   3       23070   23192   23191   23069   0.
CQUAD4   25162   3       23071   23193   23192   23070   0.
CQUAD4   25163   3       23034   23156   23157   23035   0.
CQUAD4   25164   3       23033   23155   23156   23034   0.
CQUAD4   25165   3       23032   23154   23155   23033   0.
CQUAD4   25166   3       23045   23167   23154   23032   0.
CQUAD4   25167   3       23044   23166   23167   23045   0.
CQUAD4   25168   3       23043   23165   23166   23044   0.
CQUAD4   25169   3       23042   23164   23165   23043   0.
CQUAD4   25170   3       23041   23163   23164   23042   0.
CQUAD4   25171   3       23040   23162   23163   23041   0.
CQUAD4   25172   3       23047   23169   23162   23040   0.
CQUAD4   25173   3       23046   23168   23169   23047   0.
CQUAD4   25186   3       23088   23210   23188   23066   0.
CQUAD4   25187   3       23089   23211   23210   23088   0.
CQUAD4   25188   3       23090   23212   23211   23089   0.
CQUAD4   25194   3       23066   23188   23189   23067   0.
CQUAD4   25195   3       23096   23218   23196   23074   0.
CQUAD4   25196   3       23097   23219   23218   23096   0.
CQUAD4   25197   3       23065   23187   23188   23066   0.
CQUAD4   25198   3       23064   23186   23187   23065   0.
CQUAD4   25199   3       23063   23185   23186   23064   0.
CQUAD4   25200   3       23076   23198   23185   23063   0.
CQUAD4   25201   3       23075   23197   23198   23076   0.
CQUAD4   25202   3       23074   23196   23197   23075   0.
CQUAD4   25203   3       23073   23195   23196   23074   0.
CQUAD4   25204   3       23072   23194   23195   23073   0.
CQUAD4   25205   3       23071   23193   23194   23072   0.
CQUAD4   25206   3       23077   23199   23193   23071   0.
CQUAD4   25212   3       23102   23224   23215   23093   0.
CQUAD4   25218   3       23093   23215   23216   23094   0.
CQUAD4   25219   3       23092   23214   23215   23093   0.
CQUAD4   25220   3       23091   23213   23214   23092   0.
CQUAD4   25221   3       23090   23212   23213   23091   0.
CQUAD4   25222   3       23099   23221   23212   23090   0.
CQUAD4   25223   3       23098   23220   23221   23099   0.
CQUAD4   25224   3       23109   2086    2085    23108   0.
CQUAD4   25225   3       23110   2087    2086    23109   0.
CQUAD4   25226   3       23113   2090    2082    23105   0.
CQUAD4   25227   3       23114   2091    2090    23113   0.
CQUAD4   25228   3       23115   2092    2091    23114   0.
CQUAD4   25229   3       23106   2083    2084    23107   0.
CQUAD4   25230   3       23105   2082    2083    23106   0.
CQUAD4   25231   3       23121   2098    33      20030   0.
CQUAD4   25232   3       23122   2099    2098    23121   0.
CQUAD4   25233   3       23123   2100    2099    23122   0.
CQUAD4   25234   3       23104   2081    2082    23105   0.
CQUAD4   25235   3       23103   2080    2081    23104   0.
CQUAD4   25236   3       20027   12      2080    23103   0.
CQUAD4   25237   3       23134   2111    2095    23118   0.
CQUAD4   25238   3       23135   2112    2111    23134   0.
CQUAD4   25244   3       23111   2088    2089    23112   0.
CQUAD4   25245   3       23110   2087    2088    23111   0.
CQUAD4   25246   3       23120   2097    2087    23110   0.
CQUAD4   25247   3       23119   2096    2097    23120   0.
CQUAD4   25248   3       23118   2095    2096    23119   0.
CQUAD4   25249   3       23144   2113    2103    23126   0.
CQUAD4   25250   3       23145   2114    2113    23144   0.
CQUAD4   25251   3       23146   2115    2114    23145   0.
CQUAD4   25252   3       23117   2094    2095    23118   0.
CQUAD4   25253   3       23116   2093    2094    23117   0.
CQUAD4   25254   3       23115   2092    2093    23116   0.
CQUAD4   25255   3       23128   2105    2092    23115   0.
CQUAD4   25256   3       23127   2104    2105    23128   0.
CQUAD4   25257   3       23126   2103    2104    23127   0.
CQUAD4   25258   3       23152   2118    2108    23131   0.
CQUAD4   25259   3       23153   2119    2118    23152   0.
CQUAD4   25260   3       23154   2120    2119    23153   0.
CQUAD4   25261   3       23125   2102    2103    23126   0.
CQUAD4   25262   3       23124   2101    2102    23125   0.
CQUAD4   25263   3       23123   2100    2101    23124   0.
CQUAD4   25264   3       23133   2110    2100    23123   0.
CQUAD4   25265   3       23132   2109    2110    23133   0.
CQUAD4   25266   3       23131   2108    2109    23132   0.
CQUAD4   25267   3       23160   2126    99      20032   0.
CQUAD4   25268   3       23161   2127    2126    23160   0.
CQUAD4   25269   3       23162   2128    2127    23161   0.
CQUAD4   25270   3       23130   2107    2108    23131   0.
CQUAD4   25271   3       23129   2106    2107    23130   0.
CQUAD4   25272   3       20031   65      2106    23129   0.
CQUAD4   25288   3       23183   2136    2123    23157   0.
CQUAD4   25289   3       23184   2137    2136    23183   0.
CQUAD4   25290   3       23185   2138    2137    23184   0.
CQUAD4   25292   3       23147   2116    2117    23148   0.
CQUAD4   25293   3       23146   2115    2116    23147   0.
CQUAD4   25294   3       23159   2125    2115    23146   0.
CQUAD4   25295   3       23158   2124    2125    23159   0.
CQUAD4   25296   3       23157   2123    2124    23158   0.
CQUAD4   25297   3       23191   2143    2131    23165   0.
CQUAD4   25298   3       23192   2144    2143    23191   0.
CQUAD4   25299   3       23193   2145    2144    23192   0.
CQUAD4   25300   3       23156   2122    2123    23157   0.
CQUAD4   25301   3       23155   2121    2122    23156   0.
CQUAD4   25302   3       23154   2120    2121    23155   0.
CQUAD4   25303   3       23167   2133    2120    23154   0.
CQUAD4   25304   3       23166   2132    2133    23167   0.
CQUAD4   25305   3       23165   2131    2132    23166   0.
CQUAD4   25306   3       23164   2130    2131    23165   0.
CQUAD4   25307   3       23163   2129    2130    23164   0.
CQUAD4   25308   3       23162   2128    2129    23163   0.
CQUAD4   25309   3       23169   2135    2128    23162   0.
CQUAD4   25310   3       23168   2134    2135    23169   0.
CQUAD4   25323   3       23210   2152    2141    23188   0.
CQUAD4   25324   3       23211   2153    2152    23210   0.
CQUAD4   25325   3       23212   2154    2153    23211   0.
CQUAD4   25331   3       23188   2141    2142    23189   0.
CQUAD4   25332   3       23218   2159    2148    23196   0.
CQUAD4   25333   3       23219   2160    2159    23218   0.
CQUAD4   25334   3       23187   2140    2141    23188   0.
CQUAD4   25335   3       23186   2139    2140    23187   0.
CQUAD4   25336   3       23185   2138    2139    23186   0.
CQUAD4   25337   3       23198   2150    2138    23185   0.
CQUAD4   25338   3       23197   2149    2150    23198   0.
CQUAD4   25339   3       23196   2148    2149    23197   0.
CQUAD4   25340   3       23195   2147    2148    23196   0.
CQUAD4   25341   3       23194   2146    2147    23195   0.
CQUAD4   25342   3       23193   2145    2146    23194   0.
CQUAD4   25343   3       23199   2151    2145    23193   0.
CQUAD4   25349   3       23224   2165    2157    23215   0.
CQUAD4   25355   3       23215   2157    2158    23216   0.
CQUAD4   25356   3       23214   2156    2157    23215   0.
CQUAD4   25357   3       23213   2155    2156    23214   0.
CQUAD4   25358   3       23212   2154    2155    23213   0.
CQUAD4   25359   3       23221   2162    2154    23212   0.
CQUAD4   25360   3       23220   2161    2162    23221   0.
CQUAD4   25361   3       11206   23225   22741   11213   0.
CQUAD4   25362   3       23225   23226   22863   22741   0.
CQUAD4   25363   3       23226   23227   22985   22863   0.
CQUAD4   25364   3       23227   23228   23107   22985   0.
CQUAD4   25365   3       23228   2166    2084    23107   0.
CQUAD4   25366   3       11219   22742   23229   11203   0.
CQUAD4   25367   3       22742   22864   23230   23229   0.
CQUAD4   25368   3       22864   22986   23231   23230   0.
CQUAD4   25369   3       22986   23108   23232   23231   0.
CQUAD4   25370   3       23108   2085    2167    23232   0.
CQUAD4   25371   3       11186   11220   23233   22583   0.
CQUAD4   25372   3       11220   11208   23234   23233   0.
CQUAD4   25373   3       11208   11203   23229   23234   0.
CQUAD4   25374   3       11203   11204   23235   23229   0.
CQUAD4   25375   3       11204   11205   23236   23235   0.
CQUAD4   25376   3       11205   11206   23225   23236   0.
CQUAD4   25377   3       11206   11207   23237   23225   0.
CQUAD4   25378   3       11207   11212   23238   23237   0.
CQUAD4   25379   3       11212   10457   20033   23238   0.
CQUAD4   25380   3       22583   23233   23239   22590   0.
CQUAD4   25381   3       23233   23234   23240   23239   0.
CQUAD4   25382   3       23234   23229   23230   23240   0.
CQUAD4   25383   3       23229   23235   23241   23230   0.
CQUAD4   25384   3       23235   23236   23242   23241   0.
CQUAD4   25385   3       23236   23225   23226   23242   0.
CQUAD4   25386   3       23225   23237   23243   23226   0.
CQUAD4   25387   3       23237   23238   23244   23243   0.
CQUAD4   25388   3       23238   20033   20035   23244   0.
CQUAD4   25389   3       22590   23239   23245   22597   0.
CQUAD4   25390   3       23239   23240   23246   23245   0.
CQUAD4   25391   3       23240   23230   23231   23246   0.
CQUAD4   25392   3       23230   23241   23247   23231   0.
CQUAD4   25393   3       23241   23242   23248   23247   0.
CQUAD4   25394   3       23242   23226   23227   23248   0.
CQUAD4   25395   3       23226   23243   23249   23227   0.
CQUAD4   25396   3       23243   23244   23250   23249   0.
CQUAD4   25397   3       23244   20035   20037   23250   0.
CQUAD4   25398   3       22597   23245   23251   22604   0.
CQUAD4   25399   3       23245   23246   23252   23251   0.
CQUAD4   25400   3       23246   23231   23232   23252   0.
CQUAD4   25401   3       23231   23247   23253   23232   0.
CQUAD4   25402   3       23247   23248   23254   23253   0.
CQUAD4   25403   3       23248   23227   23228   23254   0.
CQUAD4   25404   3       23227   23249   23255   23228   0.
CQUAD4   25405   3       23249   23250   23256   23255   0.
CQUAD4   25406   3       23250   20037   20039   23256   0.
CQUAD4   25407   3       22604   23251   2168    1748    0.
CQUAD4   25408   3       23251   23252   2169    2168    0.
CQUAD4   25409   3       23252   23232   2167    2169    0.
CQUAD4   25410   3       23232   23253   2170    2167    0.
CQUAD4   25411   3       23253   23254   2171    2170    0.
CQUAD4   25412   3       23254   23228   2166    2171    0.
CQUAD4   25413   3       23228   23255   2172    2166    0.
CQUAD4   25414   3       23255   23256   2173    2172    0.
CQUAD4   25415   3       23256   20039   120     2173    0.
CQUAD4   25416   3       11279   22802   23257   11276   0.
CQUAD4   25417   3       22802   22924   23258   23257   0.
CQUAD4   25418   3       22924   23046   23259   23258   0.
CQUAD4   25419   3       23046   23168   23260   23259   0.
CQUAD4   25420   3       23168   2134    2174    23260   0.
CQUAD4   25421   3       11314   22833   23261   11315   0.
CQUAD4   25422   3       22833   22955   23262   23261   0.
CQUAD4   25423   3       22955   23077   23263   23262   0.
CQUAD4   25424   3       23077   23199   23264   23263   0.
CQUAD4   25425   3       23199   2151    2175    23264   0.
CQUAD4   25426   3       11337   11336   23265   22853   0.
CQUAD4   25427   3       22853   23265   23266   22975   0.
CQUAD4   25428   3       22975   23266   23267   23097   0.
CQUAD4   25429   3       23097   23267   23268   23219   0.
CQUAD4   25430   3       23219   23268   2176    2160    0.
CQUAD4   25431   3       11340   11350   23269   22854   0.
CQUAD4   25432   3       22854   23269   23270   22976   0.
CQUAD4   25433   3       22976   23270   23271   23098   0.
CQUAD4   25434   3       23098   23271   23272   23220   0.
CQUAD4   25435   3       23220   23272   2177    2161    0.
CQUAD4   25436   3       11348   11358   23273   22858   0.
CQUAD4   25437   3       22858   23273   23274   22980   0.
CQUAD4   25438   3       22980   23274   23275   23102   0.
CQUAD4   25439   3       23102   23275   23276   23224   0.
CQUAD4   25440   3       23224   23276   2178    2165    0.
CQUAD4   25441   3       11346   11351   23277   22857   0.
CQUAD4   25442   3       22857   23277   23278   22979   0.
CQUAD4   25443   3       22979   23278   23279   23101   0.
CQUAD4   25444   3       23101   23279   23280   23223   0.
CQUAD4   25445   3       23223   23280   2179    2164    0.
CQUAD4   25446   3       10465   11277   23281   20042   0.
CQUAD4   25447   3       11277   11349   23282   23281   0.
CQUAD4   25448   3       11349   11276   23257   23282   0.
CQUAD4   25449   3       11276   11313   23283   23257   0.
CQUAD4   25450   3       11313   11312   23284   23283   0.
CQUAD4   25451   3       11312   11311   23285   23284   0.
CQUAD4   25452   3       11311   11309   23286   23285   0.
CQUAD4   25453   3       11309   11310   23287   23286   0.
CQUAD4   25454   3       11310   11315   23261   23287   0.
CQUAD4   25455   3       11315   11342   23288   23261   0.
CQUAD4   25456   3       11342   11343   23289   23288   0.
CQUAD4   25457   3       11343   11341   23290   23289   0.
CQUAD4   25458   3       11341   11344   23291   23290   0.
CQUAD4   25459   3       11344   11345   23292   23291   0.
CQUAD4   25460   3       11345   11336   23265   23292   0.
CQUAD4   25461   3       11336   11335   23293   23265   0.
CQUAD4   25462   3       11335   11334   23294   23293   0.
CQUAD4   25463   3       11334   11350   23269   23294   0.
CQUAD4   25464   3       11350   11363   23295   23269   0.
CQUAD4   25465   3       11363   11362   23296   23295   0.
CQUAD4   25466   3       11362   11359   23297   23296   0.
CQUAD4   25467   3       11359   11361   23298   23297   0.
CQUAD4   25468   3       11361   11360   23299   23298   0.
CQUAD4   25469   3       11360   11358   23273   23299   0.
CQUAD4   25470   3       11358   11354   23300   23273   0.
CQUAD4   25471   3       11354   11353   23301   23300   0.
CQUAD4   25472   3       11353   11355   23302   23301   0.
CQUAD4   25473   3       11355   11356   23303   23302   0.
CQUAD4   25474   3       11356   11357   23304   23303   0.
CQUAD4   25475   3       11357   11351   23277   23304   0.
CQUAD4   25476   3       11351   11364   23305   23277   0.
CQUAD4   25477   3       11364   11352   23306   23305   0.
CQUAD4   25478   3       11352   11114   22630   23306   0.
CQUAD4   25479   3       20042   23281   23307   20044   0.
CQUAD4   25480   3       23281   23282   23308   23307   0.
CQUAD4   25481   3       23282   23257   23258   23308   0.
CQUAD4   25482   3       23257   23283   23309   23258   0.
CQUAD4   25483   3       23283   23284   23310   23309   0.
CQUAD4   25484   3       23284   23285   23311   23310   0.
CQUAD4   25485   3       23285   23286   23312   23311   0.
CQUAD4   25486   3       23286   23287   23313   23312   0.
CQUAD4   25487   3       23287   23261   23262   23313   0.
CQUAD4   25488   3       23261   23288   23314   23262   0.
CQUAD4   25489   3       23288   23289   23315   23314   0.
CQUAD4   25490   3       23289   23290   23316   23315   0.
CQUAD4   25491   3       23290   23291   23317   23316   0.
CQUAD4   25492   3       23291   23292   23318   23317   0.
CQUAD4   25493   3       23292   23265   23266   23318   0.
CQUAD4   25494   3       23265   23293   23319   23266   0.
CQUAD4   25495   3       23293   23294   23320   23319   0.
CQUAD4   25496   3       23294   23269   23270   23320   0.
CQUAD4   25497   3       23269   23295   23321   23270   0.
CQUAD4   25498   3       23295   23296   23322   23321   0.
CQUAD4   25499   3       23296   23297   23323   23322   0.
CQUAD4   25500   3       23297   23298   23324   23323   0.
CQUAD4   25501   3       23298   23299   23325   23324   0.
CQUAD4   25502   3       23299   23273   23274   23325   0.
CQUAD4   25503   3       23273   23300   23326   23274   0.
CQUAD4   25504   3       23300   23301   23327   23326   0.
CQUAD4   25505   3       23301   23302   23328   23327   0.
CQUAD4   25506   3       23302   23303   23329   23328   0.
CQUAD4   25507   3       23303   23304   23330   23329   0.
CQUAD4   25508   3       23304   23277   23278   23330   0.
CQUAD4   25509   3       23277   23305   23331   23278   0.
CQUAD4   25510   3       23305   23306   23332   23331   0.
CQUAD4   25511   3       23306   22630   22657   23332   0.
CQUAD4   25512   3       20044   23307   23333   20046   0.
CQUAD4   25513   3       23307   23308   23334   23333   0.
CQUAD4   25514   3       23308   23258   23259   23334   0.
CQUAD4   25515   3       23258   23309   23335   23259   0.
CQUAD4   25516   3       23309   23310   23336   23335   0.
CQUAD4   25517   3       23310   23311   23337   23336   0.
CQUAD4   25518   3       23311   23312   23338   23337   0.
CQUAD4   25519   3       23312   23313   23339   23338   0.
CQUAD4   25520   3       23313   23262   23263   23339   0.
CQUAD4   25521   3       23262   23314   23340   23263   0.
CQUAD4   25522   3       23314   23315   23341   23340   0.
CQUAD4   25523   3       23315   23316   23342   23341   0.
CQUAD4   25524   3       23316   23317   23343   23342   0.
CQUAD4   25525   3       23317   23318   23344   23343   0.
CQUAD4   25526   3       23318   23266   23267   23344   0.
CQUAD4   25527   3       23266   23319   23345   23267   0.
CQUAD4   25528   3       23319   23320   23346   23345   0.
CQUAD4   25529   3       23320   23270   23271   23346   0.
CQUAD4   25530   3       23270   23321   23347   23271   0.
CQUAD4   25531   3       23321   23322   23348   23347   0.
CQUAD4   25532   3       23322   23323   23349   23348   0.
CQUAD4   25533   3       23323   23324   23350   23349   0.
CQUAD4   25534   3       23324   23325   23351   23350   0.
CQUAD4   25535   3       23325   23274   23275   23351   0.
CQUAD4   25536   3       23274   23326   23352   23275   0.
CQUAD4   25537   3       23326   23327   23353   23352   0.
CQUAD4   25538   3       23327   23328   23354   23353   0.
CQUAD4   25539   3       23328   23329   23355   23354   0.
CQUAD4   25540   3       23329   23330   23356   23355   0.
CQUAD4   25541   3       23330   23278   23279   23356   0.
CQUAD4   25542   3       23278   23331   23357   23279   0.
CQUAD4   25543   3       23331   23332   23358   23357   0.
CQUAD4   25544   3       23332   22657   22684   23358   0.
CQUAD4   25545   3       20046   23333   23359   20048   0.
CQUAD4   25546   3       23333   23334   23360   23359   0.
CQUAD4   25547   3       23334   23259   23260   23360   0.
CQUAD4   25548   3       23259   23335   23361   23260   0.
CQUAD4   25549   3       23335   23336   23362   23361   0.
CQUAD4   25550   3       23336   23337   23363   23362   0.
CQUAD4   25551   3       23337   23338   23364   23363   0.
CQUAD4   25552   3       23338   23339   23365   23364   0.
CQUAD4   25553   3       23339   23263   23264   23365   0.
CQUAD4   25554   3       23263   23340   23366   23264   0.
CQUAD4   25555   3       23340   23341   23367   23366   0.
CQUAD4   25556   3       23341   23342   23368   23367   0.
CQUAD4   25557   3       23342   23343   23369   23368   0.
CQUAD4   25558   3       23343   23344   23370   23369   0.
CQUAD4   25559   3       23344   23267   23268   23370   0.
CQUAD4   25560   3       23267   23345   23371   23268   0.
CQUAD4   25561   3       23345   23346   23372   23371   0.
CQUAD4   25562   3       23346   23271   23272   23372   0.
CQUAD4   25563   3       23271   23347   23373   23272   0.
CQUAD4   25564   3       23347   23348   23374   23373   0.
CQUAD4   25565   3       23348   23349   23375   23374   0.
CQUAD4   25566   3       23349   23350   23376   23375   0.
CQUAD4   25567   3       23350   23351   23377   23376   0.
CQUAD4   25568   3       23351   23275   23276   23377   0.
CQUAD4   25569   3       23275   23352   23378   23276   0.
CQUAD4   25570   3       23352   23353   23379   23378   0.
CQUAD4   25571   3       23353   23354   23380   23379   0.
CQUAD4   25572   3       23354   23355   23381   23380   0.
CQUAD4   25573   3       23355   23356   23382   23381   0.
CQUAD4   25574   3       23356   23279   23280   23382   0.
CQUAD4   25575   3       23279   23357   23383   23280   0.
CQUAD4   25576   3       23357   23358   23384   23383   0.
CQUAD4   25577   3       23358   22684   22711   23384   0.
CQUAD4   25578   3       20048   23359   2180    160     0.
CQUAD4   25579   3       23359   23360   2181    2180    0.
CQUAD4   25580   3       23360   23260   2174    2181    0.
CQUAD4   25581   3       23260   23361   2182    2174    0.
CQUAD4   25582   3       23361   23362   2183    2182    0.
CQUAD4   25583   3       23362   23363   2184    2183    0.
CQUAD4   25584   3       23363   23364   2185    2184    0.
CQUAD4   25585   3       23364   23365   2186    2185    0.
CQUAD4   25586   3       23365   23264   2175    2186    0.
CQUAD4   25587   3       23264   23366   2187    2175    0.
CQUAD4   25588   3       23366   23367   2188    2187    0.
CQUAD4   25589   3       23367   23368   2189    2188    0.
CQUAD4   25590   3       23368   23369   2190    2189    0.
CQUAD4   25591   3       23369   23370   2191    2190    0.
CQUAD4   25592   3       23370   23268   2176    2191    0.
CQUAD4   25593   3       23268   23371   2192    2176    0.
CQUAD4   25594   3       23371   23372   2193    2192    0.
CQUAD4   25595   3       23372   23272   2177    2193    0.
CQUAD4   25596   3       23272   23373   2194    2177    0.
CQUAD4   25597   3       23373   23374   2195    2194    0.
CQUAD4   25598   3       23374   23375   2196    2195    0.
CQUAD4   25599   3       23375   23376   2197    2196    0.
CQUAD4   25600   3       23376   23377   2198    2197    0.
CQUAD4   25601   3       23377   23276   2178    2198    0.
CQUAD4   25602   3       23276   23378   2199    2178    0.
CQUAD4   25603   3       23378   23379   2200    2199    0.
CQUAD4   25604   3       23379   23380   2201    2200    0.
CQUAD4   25605   3       23380   23381   2202    2201    0.
CQUAD4   25606   3       23381   23382   2203    2202    0.
CQUAD4   25607   3       23382   23280   2179    2203    0.
CQUAD4   25608   3       23280   23383   2204    2179    0.
CQUAD4   25609   3       23383   23384   2205    2204    0.
CQUAD4   25610   3       23384   22711   1756    2205    0.
CQUAD4   39860   3       32435   33112   33107   32399   0.
CQUAD4   39861   3       32433   33113   33112   32435   0.
CQUAD4   39862   3       32432   33114   33113   32433   0.
CQUAD4   39863   3       32446   33120   32838   32449   0.
CQUAD4   39864   3       10024   20093   33120   32446   0.
CQUAD4   39870   3       32416   33108   20068   10561   0.
CQUAD4   39871   3       32399   33107   33108   32416   0.
CQUAD4   39872   3       10556   20065   33107   32399   0.
CQUAD4   39877   3       32489   33127   33117   32426   0.
CQUAD4   39879   3       32486   33129   33128   32487   0.
CQUAD4   39880   3       32450   33119   32838   32449   0.
CQUAD4   39881   3       32452   33118   33119   32450   0.
CQUAD4   39882   3       32426   33117   33118   32452   0.
CQUAD4   39883   3       32507   33132   33124   32456   0.
CQUAD4   39884   3       32505   33133   33132   32507   0.
CQUAD4   39885   3       32504   33134   33133   32505   0.
CQUAD4   39886   3       32427   33116   33117   32426   0.
CQUAD4   39887   3       32429   33115   33116   32427   0.
CQUAD4   39888   3       32432   33114   33115   32429   0.
CQUAD4   39889   3       32474   33126   33114   32432   0.
CQUAD4   39890   3       32476   33125   33126   32474   0.
CQUAD4   39891   3       32456   33124   33125   32476   0.
CQUAD4   39892   3       10587   20098   33124   32456   0.
CQUAD4   39894   3       32543   33142   33137   32498   0.
CQUAD4   39895   3       32541   33143   33142   32543   0.
CQUAD4   39896   3       32540   33144   33143   32541   0.
CQUAD4   39897   3       32554   33150   32840   32557   0.
CQUAD4   39898   3       32552   33151   33150   32554   0.
CQUAD4   39899   3       32480   32839   33151   32552   0.
CQUAD4   39903   3       32519   33139   33129   32486   0.
CQUAD4   39905   3       32498   33137   33138   32521   0.
CQUAD4   39906   3       32499   33136   33137   32498   0.
CQUAD4   39907   3       32501   33135   33136   32499   0.
CQUAD4   39908   3       32504   33134   33135   32501   0.
CQUAD4   39909   3       32528   33141   33134   32504   0.
CQUAD4   39910   3       32530   33140   33141   32528   0.
CQUAD4   39911   3       32586   33157   33147   32534   0.
CQUAD4   39912   3       32585   33158   33157   32586   0.
CQUAD4   39917   3       32535   33146   33147   32534   0.
CQUAD4   39918   3       32537   33145   33146   32535   0.
CQUAD4   39919   3       32540   33144   33145   32537   0.
CQUAD4   39920   3       32582   33156   33144   32540   0.
CQUAD4   39921   3       32584   33155   33156   32582   0.
CQUAD4   39922   3       10659   20165   33155   32584   0.
CQUAD4   39929   3       33112   33175   33170   33107   0.
CQUAD4   39930   3       33113   33176   33175   33112   0.
CQUAD4   39931   3       33114   33177   33176   33113   0.
CQUAD4   39932   3       33120   33183   32842   32838   0.
CQUAD4   39933   3       20093   20219   33183   33120   0.
CQUAD4   39939   3       33108   33171   20194   20068   0.
CQUAD4   39940   3       33107   33170   33171   33108   0.
CQUAD4   39941   3       20065   20191   33170   33107   0.
CQUAD4   39946   3       33127   33190   33180   33117   0.
CQUAD4   39948   3       33129   33192   33191   33128   0.
CQUAD4   39949   3       33119   33182   32842   32838   0.
CQUAD4   39950   3       33118   33181   33182   33119   0.
CQUAD4   39951   3       33117   33180   33181   33118   0.
CQUAD4   39952   3       33132   33195   33187   33124   0.
CQUAD4   39953   3       33133   33196   33195   33132   0.
CQUAD4   39954   3       33134   33197   33196   33133   0.
CQUAD4   39955   3       33116   33179   33180   33117   0.
CQUAD4   39956   3       33115   33178   33179   33116   0.
CQUAD4   39957   3       33114   33177   33178   33115   0.
CQUAD4   39958   3       33126   33189   33177   33114   0.
CQUAD4   39959   3       33125   33188   33189   33126   0.
CQUAD4   39960   3       33124   33187   33188   33125   0.
CQUAD4   39961   3       20098   20224   33187   33124   0.
CQUAD4   39963   3       33142   33205   33200   33137   0.
CQUAD4   39964   3       33143   33206   33205   33142   0.
CQUAD4   39965   3       33144   33207   33206   33143   0.
CQUAD4   39966   3       33150   33213   32844   32840   0.
CQUAD4   39967   3       33151   33214   33213   33150   0.
CQUAD4   39968   3       32839   32843   33214   33151   0.
CQUAD4   39972   3       33139   33202   33192   33129   0.
CQUAD4   39974   3       33137   33200   33201   33138   0.
CQUAD4   39975   3       33136   33199   33200   33137   0.
CQUAD4   39976   3       33135   33198   33199   33136   0.
CQUAD4   39977   3       33134   33197   33198   33135   0.
CQUAD4   39978   3       33141   33204   33197   33134   0.
CQUAD4   39979   3       33140   33203   33204   33141   0.
CQUAD4   39980   3       33157   33220   33210   33147   0.
CQUAD4   39981   3       33158   33221   33220   33157   0.
CQUAD4   39986   3       33146   33209   33210   33147   0.
CQUAD4   39987   3       33145   33208   33209   33146   0.
CQUAD4   39988   3       33144   33207   33208   33145   0.
CQUAD4   39989   3       33156   33219   33207   33144   0.
CQUAD4   39990   3       33155   33218   33219   33156   0.
CQUAD4   39991   3       20165   20291   33218   33155   0.
CQUAD4   39998   3       33175   33238   33233   33170   0.
CQUAD4   39999   3       33176   33239   33238   33175   0.
CQUAD4   40000   3       33177   33240   33239   33176   0.
CQUAD4   40001   3       33183   33246   32846   32842   0.
CQUAD4   40002   3       20219   20345   33246   33183   0.
CQUAD4   40008   3       33171   33234   20320   20194   0.
CQUAD4   40009   3       33170   33233   33234   33171   0.
CQUAD4   40010   3       20191   20317   33233   33170   0.
CQUAD4   40015   3       33190   33253   33243   33180   0.
CQUAD4   40017   3       33192   33255   33254   33191   0.
CQUAD4   40018   3       33182   33245   32846   32842   0.
CQUAD4   40019   3       33181   33244   33245   33182   0.
CQUAD4   40020   3       33180   33243   33244   33181   0.
CQUAD4   40021   3       33195   33258   33250   33187   0.
CQUAD4   40022   3       33196   33259   33258   33195   0.
CQUAD4   40023   3       33197   33260   33259   33196   0.
CQUAD4   40024   3       33179   33242   33243   33180   0.
CQUAD4   40025   3       33178   33241   33242   33179   0.
CQUAD4   40026   3       33177   33240   33241   33178   0.
CQUAD4   40027   3       33189   33252   33240   33177   0.
CQUAD4   40028   3       33188   33251   33252   33189   0.
CQUAD4   40029   3       33187   33250   33251   33188   0.
CQUAD4   40030   3       20224   20350   33250   33187   0.
CQUAD4   40032   3       33205   33268   33263   33200   0.
CQUAD4   40033   3       33206   33269   33268   33205   0.
CQUAD4   40034   3       33207   33270   33269   33206   0.
CQUAD4   40035   3       33213   33276   32848   32844   0.
CQUAD4   40036   3       33214   33277   33276   33213   0.
CQUAD4   40037   3       32843   32847   33277   33214   0.
CQUAD4   40041   3       33202   33265   33255   33192   0.
CQUAD4   40043   3       33200   33263   33264   33201   0.
CQUAD4   40044   3       33199   33262   33263   33200   0.
CQUAD4   40045   3       33198   33261   33262   33199   0.
CQUAD4   40046   3       33197   33260   33261   33198   0.
CQUAD4   40047   3       33204   33267   33260   33197   0.
CQUAD4   40048   3       33203   33266   33267   33204   0.
CQUAD4   40049   3       33220   33283   33273   33210   0.
CQUAD4   40050   3       33221   33284   33283   33220   0.
CQUAD4   40055   3       33209   33272   33273   33210   0.
CQUAD4   40056   3       33208   33271   33272   33209   0.
CQUAD4   40057   3       33207   33270   33271   33208   0.
CQUAD4   40058   3       33219   33282   33270   33207   0.
CQUAD4   40059   3       33218   33281   33282   33219   0.
CQUAD4   40060   3       20291   20417   33281   33218   0.
CQUAD4   40067   3       33238   33301   33296   33233   0.
CQUAD4   40068   3       33239   33302   33301   33238   0.
CQUAD4   40069   3       33240   33303   33302   33239   0.
CQUAD4   40070   3       33246   33309   32850   32846   0.
CQUAD4   40071   3       20345   20471   33309   33246   0.
CQUAD4   40077   3       33234   33297   20446   20320   0.
CQUAD4   40078   3       33233   33296   33297   33234   0.
CQUAD4   40079   3       20317   20443   33296   33233   0.
CQUAD4   40084   3       33253   33316   33306   33243   0.
CQUAD4   40086   3       33255   33318   33317   33254   0.
CQUAD4   40087   3       33245   33308   32850   32846   0.
CQUAD4   40088   3       33244   33307   33308   33245   0.
CQUAD4   40089   3       33243   33306   33307   33244   0.
CQUAD4   40090   3       33258   33321   33313   33250   0.
CQUAD4   40091   3       33259   33322   33321   33258   0.
CQUAD4   40092   3       33260   33323   33322   33259   0.
CQUAD4   40093   3       33242   33305   33306   33243   0.
CQUAD4   40094   3       33241   33304   33305   33242   0.
CQUAD4   40095   3       33240   33303   33304   33241   0.
CQUAD4   40096   3       33252   33315   33303   33240   0.
CQUAD4   40097   3       33251   33314   33315   33252   0.
CQUAD4   40098   3       33250   33313   33314   33251   0.
CQUAD4   40099   3       20350   20476   33313   33250   0.
CQUAD4   40101   3       33268   33331   33326   33263   0.
CQUAD4   40102   3       33269   33332   33331   33268   0.
CQUAD4   40103   3       33270   33333   33332   33269   0.
CQUAD4   40104   3       33276   33339   32852   32848   0.
CQUAD4   40105   3       33277   33340   33339   33276   0.
CQUAD4   40106   3       32847   32851   33340   33277   0.
CQUAD4   40110   3       33265   33328   33318   33255   0.
CQUAD4   40112   3       33263   33326   33327   33264   0.
CQUAD4   40113   3       33262   33325   33326   33263   0.
CQUAD4   40114   3       33261   33324   33325   33262   0.
CQUAD4   40115   3       33260   33323   33324   33261   0.
CQUAD4   40116   3       33267   33330   33323   33260   0.
CQUAD4   40117   3       33266   33329   33330   33267   0.
CQUAD4   40118   3       33283   33346   33336   33273   0.
CQUAD4   40119   3       33284   33347   33346   33283   0.
CQUAD4   40124   3       33272   33335   33336   33273   0.
CQUAD4   40125   3       33271   33334   33335   33272   0.
CQUAD4   40126   3       33270   33333   33334   33271   0.
CQUAD4   40127   3       33282   33345   33333   33270   0.
CQUAD4   40128   3       33281   33344   33345   33282   0.
CQUAD4   40129   3       20417   20543   33344   33281   0.
CQUAD4   40136   3       33301   2461    2459    33296   0.
CQUAD4   40137   3       33302   2462    2461    33301   0.
CQUAD4   40138   3       33303   2463    2462    33302   0.
CQUAD4   40139   3       33309   2470    2469    32850   0.
CQUAD4   40140   3       20471   170     2470    33309   0.
CQUAD4   40146   3       33297   2460    496     20446   0.
CQUAD4   40147   3       33296   2459    2460    33297   0.
CQUAD4   40148   3       20443   495     2459    33296   0.
CQUAD4   40153   3       33316   2474    2466    33306   0.
CQUAD4   40155   3       33318   2476    2475    33317   0.
CQUAD4   40156   3       33308   2468    2469    32850   0.
CQUAD4   40157   3       33307   2467    2468    33308   0.
CQUAD4   40158   3       33306   2466    2467    33307   0.
CQUAD4   40159   3       33321   2480    2471    33313   0.
CQUAD4   40160   3       33322   2481    2480    33321   0.
CQUAD4   40161   3       33323   2482    2481    33322   0.
CQUAD4   40162   3       33305   2465    2466    33306   0.
CQUAD4   40163   3       33304   2464    2465    33305   0.
CQUAD4   40164   3       33303   2463    2464    33304   0.
CQUAD4   40165   3       33315   2473    2463    33303   0.
CQUAD4   40166   3       33314   2472    2473    33315   0.
CQUAD4   40167   3       33313   2471    2472    33314   0.
CQUAD4   40168   3       20476   516     2471    33313   0.
CQUAD4   40170   3       33331   2490    2485    33326   0.
CQUAD4   40171   3       33332   2491    2490    33331   0.
CQUAD4   40172   3       33333   2492    2491    33332   0.
CQUAD4   40173   3       33339   2499    2498    32852   0.
CQUAD4   40174   3       33340   2500    2499    33339   0.
CQUAD4   40175   3       32851   2479    2500    33340   0.
CQUAD4   40179   3       33328   2487    2476    33318   0.
CQUAD4   40181   3       33326   2485    2486    33327   0.
CQUAD4   40182   3       33325   2484    2485    33326   0.
CQUAD4   40183   3       33324   2483    2484    33325   0.
CQUAD4   40184   3       33323   2482    2483    33324   0.
CQUAD4   40185   3       33330   2489    2482    33323   0.
CQUAD4   40186   3       33329   2488    2489    33330   0.
CQUAD4   40187   3       33346   2503    2495    33336   0.
CQUAD4   40188   3       33347   2504    2503    33346   0.
CQUAD4   40193   3       33335   2494    2495    33336   0.
CQUAD4   40194   3       33334   2493    2494    33335   0.
CQUAD4   40195   3       33333   2492    2493    33334   0.
CQUAD4   40196   3       33345   2502    2492    33333   0.
CQUAD4   40197   3       33344   2501    2502    33345   0.
CQUAD4   40198   3       20543   552     2501    33344   0.
CQUAD4   40206   3       32585   10685   20609   33158   0.
CQUAD4   40207   3       33158   20609   20610   33221   0.
CQUAD4   40208   3       33221   20610   20611   33284   0.
CQUAD4   40209   3       33284   20611   20612   33347   0.
CQUAD4   40210   3       33347   20612   572     2504    0.
CQUAD4   40241   3       32647   32866   32838   32449   0.
CQUAD4   40242   3       32646   32867   32866   32647   0.
CQUAD4   40243   3       32645   32868   32867   32646   0.
CQUAD4   40263   3       32644   32869   23407   10073   0.
CQUAD4   40264   3       32645   32868   32869   32644   0.
CQUAD4   40265   3       32653   32878   32868   32645   0.
CQUAD4   40267   3       32650   32876   32877   32654   0.
CQUAD4   40300   3       32866   32921   32842   32838   0.
CQUAD4   40301   3       32867   32922   32921   32866   0.
CQUAD4   40302   3       32868   32923   32922   32867   0.
CQUAD4   40322   3       32869   32924   23529   23407   0.
CQUAD4   40323   3       32868   32923   32924   32869   0.
CQUAD4   40324   3       32878   32933   32923   32868   0.
CQUAD4   40326   3       32876   32931   32932   32877   0.
CQUAD4   40359   3       32921   32976   32846   32842   0.
CQUAD4   40360   3       32922   32977   32976   32921   0.
CQUAD4   40361   3       32923   32978   32977   32922   0.
CQUAD4   40381   3       32924   32979   23651   23529   0.
CQUAD4   40382   3       32923   32978   32979   32924   0.
CQUAD4   40383   3       32933   32988   32978   32923   0.
CQUAD4   40385   3       32931   32986   32987   32932   0.
CQUAD4   40418   3       32976   33031   32850   32846   0.
CQUAD4   40419   3       32977   33032   33031   32976   0.
CQUAD4   40420   3       32978   33033   33032   32977   0.
CQUAD4   40440   3       32979   33034   23773   23651   0.
CQUAD4   40441   3       32978   33033   33034   32979   0.
CQUAD4   40442   3       32988   33043   33033   32978   0.
CQUAD4   40444   3       32986   33041   33042   32987   0.
CQUAD4   40477   3       33031   2612    2469    32850   0.
CQUAD4   40478   3       33032   2613    2612    33031   0.
CQUAD4   40479   3       33033   2614    2613    33032   0.
CQUAD4   40499   3       33034   2615    21      23773   0.
CQUAD4   40500   3       33033   2614    2615    33034   0.
CQUAD4   40501   3       33043   2620    2614    33033   0.
CQUAD4   40503   3       33041   2618    2619    33042   0.
CQUAD4   42882   3       34271   35059   35045   34201   0.
CQUAD4   42883   3       34269   35060   35059   34271   0.
CQUAD4   42884   3       10662   20162   35060   34269   0.
CQUAD4   42890   3       34201   35045   33140   32530   0.
CQUAD4   42891   3       10629   20137   35045   34201   0.
CQUAD4   42981   3       35059   35148   35134   35045   0.
CQUAD4   42982   3       35060   35149   35148   35059   0.
CQUAD4   42983   3       20162   20288   35149   35060   0.
CQUAD4   42989   3       35045   35134   33203   33140   0.
CQUAD4   42990   3       20137   20263   35134   35045   0.
CQUAD4   43080   3       35148   35237   35223   35134   0.
CQUAD4   43081   3       35149   35238   35237   35148   0.
CQUAD4   43082   3       20288   20414   35238   35149   0.
CQUAD4   43088   3       35134   35223   33266   33203   0.
CQUAD4   43089   3       20263   20389   35223   35134   0.
CQUAD4   43179   3       35237   35326   35312   35223   0.
CQUAD4   43180   3       35238   35327   35326   35237   0.
CQUAD4   43181   3       20414   20540   35327   35238   0.
CQUAD4   43187   3       35223   35312   33329   33266   0.
CQUAD4   43188   3       20389   20515   35312   35223   0.
CQUAD4   43278   3       35326   2649    2648    35312   0.
CQUAD4   43279   3       35327   2650    2649    35326   0.
CQUAD4   43280   3       20540   549     2650    35327   0.
CQUAD4   43286   3       35312   2648    2488    33329   0.
CQUAD4   43287   3       20515   539     2648    35312   0.
CQUAD4   43376   3       10685   32622   35386   20609   0.
CQUAD4   43377   3       32622   10686   20639   35386   0.
CQUAD4   43392   3       20609   35386   35399   20610   0.
CQUAD4   43393   3       35386   20639   20666   35399   0.
CQUAD4   43408   3       20610   35399   35412   20611   0.
CQUAD4   43409   3       35399   20666   20693   35412   0.
CQUAD4   43424   3       20611   35412   35425   20612   0.
CQUAD4   43425   3       35412   20693   20720   35425   0.
CQUAD4   43440   3       20612   35425   2505    572     0.
CQUAD4   43441   3       35425   20720   598     2505    0.
CQUAD4   46447   3       36439   37044   37032   36422   0.
CQUAD4   46448   3       36438   37045   37044   36439   0.
CQUAD4   46449   3       36437   37046   37045   36438   0.
CQUAD4   46452   3       36419   37026   20722   10707   0.
CQUAD4   46470   3       36436   37047   20745   10728   0.
CQUAD4   46471   3       36437   37046   37047   36436   0.
CQUAD4   46501   3       36473   37082   37075   36465   0.
CQUAD4   46502   3       10780   20790   37082   36473   0.
CQUAD4   46527   3       37044   37124   37112   37032   0.
CQUAD4   46528   3       37045   37125   37124   37044   0.
CQUAD4   46529   3       37046   37126   37125   37045   0.
CQUAD4   46532   3       37026   37106   20848   20722   0.
CQUAD4   46550   3       37047   37127   20871   20745   0.
CQUAD4   46551   3       37046   37126   37127   37047   0.
CQUAD4   46581   3       37082   37162   37155   37075   0.
CQUAD4   46582   3       20790   20916   37162   37082   0.
CQUAD4   46607   3       37124   37204   37192   37112   0.
CQUAD4   46608   3       37125   37205   37204   37124   0.
CQUAD4   46609   3       37126   37206   37205   37125   0.
CQUAD4   46612   3       37106   37186   20974   20848   0.
CQUAD4   46630   3       37127   37207   20997   20871   0.
CQUAD4   46631   3       37126   37206   37207   37127   0.
CQUAD4   46661   3       37162   37242   37235   37155   0.
CQUAD4   46662   3       20916   21042   37242   37162   0.
CQUAD4   46687   3       37204   37284   37272   37192   0.
CQUAD4   46688   3       37205   37285   37284   37204   0.
CQUAD4   46689   3       37206   37286   37285   37205   0.
CQUAD4   46692   3       37186   37266   21100   20974   0.
CQUAD4   46710   3       37207   37287   21123   20997   0.
CQUAD4   46711   3       37206   37286   37287   37207   0.
CQUAD4   46741   3       37242   37322   37315   37235   0.
CQUAD4   46742   3       21042   21168   37322   37242   0.
CQUAD4   46767   3       37284   2655    2654    37272   0.
CQUAD4   46768   3       37285   2656    2655    37284   0.
CQUAD4   46769   3       37286   2657    2656    37285   0.
CQUAD4   46772   3       37266   2653    846     21100   0.
CQUAD4   46790   3       37287   2658    864     21123   0.
CQUAD4   46791   3       37286   2657    2658    37287   0.
CQUAD4   46821   3       37322   2662    2660    37315   0.
CQUAD4   46822   3       21168   895     2662    37322   0.
CQUAD4   47030   3       36538   37486   37485   36530   0.
CQUAD4   47031   3       36537   37487   37486   36538   0.
CQUAD4   47032   3       36536   37488   37487   36537   0.
CQUAD4   47033   3       36540   37494   37032   36422   0.
CQUAD4   47034   3       36539   37495   37494   36540   0.
CQUAD4   47035   3       36419   37026   37495   36539   0.
CQUAD4   47036   3       10881   21404   37026   36419   0.
CQUAD4   47042   3       36541   37493   37032   36422   0.
CQUAD4   47043   3       36542   37492   37493   36541   0.
CQUAD4   47044   3       36533   37491   37492   36542   0.
CQUAD4   47045   3       36562   37508   37499   36543   0.
CQUAD4   47046   3       36561   37509   37508   36562   0.
CQUAD4   47047   3       36560   37510   37509   36561   0.
CQUAD4   47048   3       36534   37490   37491   36533   0.
CQUAD4   47049   3       36535   37489   37490   36534   0.
CQUAD4   47050   3       36536   37488   37489   36535   0.
CQUAD4   47051   3       36547   37501   37488   36536   0.
CQUAD4   47052   3       36548   37500   37501   36547   0.
CQUAD4   47053   3       36543   37499   37500   36548   0.
CQUAD4   47057   3       36544   37498   37499   36543   0.
CQUAD4   47058   3       10922   21441   37498   36544   0.
CQUAD4   47075   3       36558   37512   37513   36557   0.
CQUAD4   47076   3       36559   37511   37512   36558   0.
CQUAD4   47077   3       36560   37510   37511   36559   0.
CQUAD4   47078   3       36571   37523   37510   36560   0.
CQUAD4   47079   3       10969   21483   37523   36571   0.
CQUAD4   47085   3       36594   37544   37530   36574   0.
CQUAD4   47086   3       11015   21517   37544   36594   0.
CQUAD4   47090   3       36595   37546   37540   36584   0.
CQUAD4   47094   3       36590   37542   37527   36577   0.
CQUAD4   47095   3       36591   37541   37542   36590   0.
CQUAD4   47096   3       36584   37540   37541   36591   0.
CQUAD4   47097   3       36585   37539   37540   36584   0.
CQUAD4   47098   3       10997   21507   37539   36585   0.
CQUAD4   47101   3       37486   37551   37550   37485   0.
CQUAD4   47102   3       37487   37552   37551   37486   0.
CQUAD4   47103   3       37488   37553   37552   37487   0.
CQUAD4   47104   3       37494   37559   37112   37032   0.
CQUAD4   47105   3       37495   37560   37559   37494   0.
CQUAD4   47106   3       37026   37106   37560   37495   0.
CQUAD4   47107   3       21404   21530   37106   37026   0.
CQUAD4   47113   3       37493   37558   37112   37032   0.
CQUAD4   47114   3       37492   37557   37558   37493   0.
CQUAD4   47115   3       37491   37556   37557   37492   0.
CQUAD4   47116   3       37508   37573   37564   37499   0.
CQUAD4   47117   3       37509   37574   37573   37508   0.
CQUAD4   47118   3       37510   37575   37574   37509   0.
CQUAD4   47119   3       37490   37555   37556   37491   0.
CQUAD4   47120   3       37489   37554   37555   37490   0.
CQUAD4   47121   3       37488   37553   37554   37489   0.
CQUAD4   47122   3       37501   37566   37553   37488   0.
CQUAD4   47123   3       37500   37565   37566   37501   0.
CQUAD4   47124   3       37499   37564   37565   37500   0.
CQUAD4   47128   3       37498   37563   37564   37499   0.
CQUAD4   47129   3       21441   21567   37563   37498   0.
CQUAD4   47146   3       37512   37577   37578   37513   0.
CQUAD4   47147   3       37511   37576   37577   37512   0.
CQUAD4   47148   3       37510   37575   37576   37511   0.
CQUAD4   47149   3       37523   37588   37575   37510   0.
CQUAD4   47150   3       21483   21609   37588   37523   0.
CQUAD4   47156   3       37544   37609   37595   37530   0.
CQUAD4   47157   3       21517   21643   37609   37544   0.
CQUAD4   47161   3       37546   37611   37605   37540   0.
CQUAD4   47165   3       37542   37607   37592   37527   0.
CQUAD4   47166   3       37541   37606   37607   37542   0.
CQUAD4   47167   3       37540   37605   37606   37541   0.
CQUAD4   47168   3       37539   37604   37605   37540   0.
CQUAD4   47169   3       21507   21633   37604   37539   0.
CQUAD4   47172   3       37551   37616   37615   37550   0.
CQUAD4   47173   3       37552   37617   37616   37551   0.
CQUAD4   47174   3       37553   37618   37617   37552   0.
CQUAD4   47175   3       37559   37624   37192   37112   0.
CQUAD4   47176   3       37560   37625   37624   37559   0.
CQUAD4   47177   3       37106   37186   37625   37560   0.
CQUAD4   47178   3       21530   21656   37186   37106   0.
CQUAD4   47184   3       37558   37623   37192   37112   0.
CQUAD4   47185   3       37557   37622   37623   37558   0.
CQUAD4   47186   3       37556   37621   37622   37557   0.
CQUAD4   47187   3       37573   37638   37629   37564   0.
CQUAD4   47188   3       37574   37639   37638   37573   0.
CQUAD4   47189   3       37575   37640   37639   37574   0.
CQUAD4   47190   3       37555   37620   37621   37556   0.
CQUAD4   47191   3       37554   37619   37620   37555   0.
CQUAD4   47192   3       37553   37618   37619   37554   0.
CQUAD4   47193   3       37566   37631   37618   37553   0.
CQUAD4   47194   3       37565   37630   37631   37566   0.
CQUAD4   47195   3       37564   37629   37630   37565   0.
CQUAD4   47199   3       37563   37628   37629   37564   0.
CQUAD4   47200   3       21567   21693   37628   37563   0.
CQUAD4   47217   3       37577   37642   37643   37578   0.
CQUAD4   47218   3       37576   37641   37642   37577   0.
CQUAD4   47219   3       37575   37640   37641   37576   0.
CQUAD4   47220   3       37588   37653   37640   37575   0.
CQUAD4   47221   3       21609   21735   37653   37588   0.
CQUAD4   47227   3       37609   37674   37660   37595   0.
CQUAD4   47228   3       21643   21769   37674   37609   0.
CQUAD4   47232   3       37611   37676   37670   37605   0.
CQUAD4   47236   3       37607   37672   37657   37592   0.
CQUAD4   47237   3       37606   37671   37672   37607   0.
CQUAD4   47238   3       37605   37670   37671   37606   0.
CQUAD4   47239   3       37604   37669   37670   37605   0.
CQUAD4   47240   3       21633   21759   37669   37604   0.
CQUAD4   47243   3       37616   37681   37680   37615   0.
CQUAD4   47244   3       37617   37682   37681   37616   0.
CQUAD4   47245   3       37618   37683   37682   37617   0.
CQUAD4   47246   3       37624   37689   37272   37192   0.
CQUAD4   47247   3       37625   37690   37689   37624   0.
CQUAD4   47248   3       37186   37266   37690   37625   0.
CQUAD4   47249   3       21656   21782   37266   37186   0.
CQUAD4   47255   3       37623   37688   37272   37192   0.
CQUAD4   47256   3       37622   37687   37688   37623   0.
CQUAD4   47257   3       37621   37686   37687   37622   0.
CQUAD4   47258   3       37638   37703   37694   37629   0.
CQUAD4   47259   3       37639   37704   37703   37638   0.
CQUAD4   47260   3       37640   37705   37704   37639   0.
CQUAD4   47261   3       37620   37685   37686   37621   0.
CQUAD4   47262   3       37619   37684   37685   37620   0.
CQUAD4   47263   3       37618   37683   37684   37619   0.
CQUAD4   47264   3       37631   37696   37683   37618   0.
CQUAD4   47265   3       37630   37695   37696   37631   0.
CQUAD4   47266   3       37629   37694   37695   37630   0.
CQUAD4   47270   3       37628   37693   37694   37629   0.
CQUAD4   47271   3       21693   21819   37693   37628   0.
CQUAD4   47288   3       37642   37707   37708   37643   0.
CQUAD4   47289   3       37641   37706   37707   37642   0.
CQUAD4   47290   3       37640   37705   37706   37641   0.
CQUAD4   47291   3       37653   37718   37705   37640   0.
CQUAD4   47292   3       21735   21861   37718   37653   0.
CQUAD4   47298   3       37674   37739   37725   37660   0.
CQUAD4   47299   3       21769   21895   37739   37674   0.
CQUAD4   47303   3       37676   37741   37735   37670   0.
CQUAD4   47307   3       37672   37737   37722   37657   0.
CQUAD4   47308   3       37671   37736   37737   37672   0.
CQUAD4   47309   3       37670   37735   37736   37671   0.
CQUAD4   47310   3       37669   37734   37735   37670   0.
CQUAD4   47311   3       21759   21885   37734   37669   0.
CQUAD4   47314   3       37681   2695    2694    37680   0.
CQUAD4   47315   3       37682   2696    2695    37681   0.
CQUAD4   47316   3       37683   2697    2696    37682   0.
CQUAD4   47317   3       37689   2664    2654    37272   0.
CQUAD4   47318   3       37690   2663    2664    37689   0.
CQUAD4   47319   3       37266   2653    2663    37690   0.
CQUAD4   47320   3       21782   1291    2653    37266   0.
CQUAD4   47326   3       37688   2702    2654    37272   0.
CQUAD4   47327   3       37687   2701    2702    37688   0.
CQUAD4   47328   3       37686   2700    2701    37687   0.
CQUAD4   47329   3       37703   2707    2704    37694   0.
CQUAD4   47330   3       37704   2708    2707    37703   0.
CQUAD4   47331   3       37705   2709    2708    37704   0.
CQUAD4   47332   3       37685   2699    2700    37686   0.
CQUAD4   47333   3       37684   2698    2699    37685   0.
CQUAD4   47334   3       37683   2697    2698    37684   0.
CQUAD4   47335   3       37696   2706    2697    37683   0.
CQUAD4   47336   3       37695   2705    2706    37696   0.
CQUAD4   47337   3       37694   2704    2705    37695   0.
CQUAD4   47341   3       37693   2703    2704    37694   0.
CQUAD4   47342   3       21819   1317    2703    37693   0.
CQUAD4   47359   3       37707   2711    2712    37708   0.
CQUAD4   47360   3       37706   2710    2711    37707   0.
CQUAD4   47361   3       37705   2709    2710    37706   0.
CQUAD4   47362   3       37718   2713    2709    37705   0.
CQUAD4   47363   3       21861   1342    2713    37718   0.
CQUAD4   47369   3       37739   2724    2718    37725   0.
CQUAD4   47370   3       21895   1360    2724    37739   0.
CQUAD4   47374   3       37741   2725    2721    37735   0.
CQUAD4   47378   3       37737   2723    2716    37722   0.
CQUAD4   47379   3       37736   2722    2723    37737   0.
CQUAD4   47380   3       37735   2721    2722    37736   0.
CQUAD4   47381   3       37734   2720    2721    37735   0.
CQUAD4   47382   3       21885   1355    2720    37734   0.
CQUAD4   47385   3       36595   11028   21949   37546   0.
CQUAD4   47386   3       37546   21949   21950   37611   0.
CQUAD4   47387   3       37611   21950   21951   37676   0.
CQUAD4   47388   3       37676   21951   21952   37741   0.
CQUAD4   47389   3       37741   21952   1374    2725    0.
CQUAD4   47395   3       11031   36604   37751   21975   0.
CQUAD4   47396   3       36604   11028   21949   37751   0.
CQUAD4   47406   3       21975   37751   37760   22002   0.
CQUAD4   47407   3       37751   21949   21950   37760   0.
CQUAD4   47417   3       22002   37760   37769   22029   0.
CQUAD4   47418   3       37760   21950   21951   37769   0.
CQUAD4   47428   3       22029   37769   37778   22056   0.
CQUAD4   47429   3       37769   21951   21952   37778   0.
CQUAD4   47439   3       22056   37778   2726    1394    0.
CQUAD4   47440   3       37778   21952   1374    2726    0.
CQUAD4   51391   3       36530   37485   21411   10894   0.
CQUAD4   51395   3       10888   21409   37485   36530   0.
CQUAD4   51507   3       37485   37550   21537   21411   0.
CQUAD4   51511   3       21409   21535   37550   37485   0.
CQUAD4   51623   3       37550   37615   21663   21537   0.
CQUAD4   51627   3       21535   21661   37615   37550   0.
CQUAD4   51739   3       37615   37680   21789   21663   0.
CQUAD4   51743   3       21661   21787   37680   37615   0.
CQUAD4   51855   3       37680   2694    1297    21789   0.
CQUAD4   51859   3       21787   1296    2694    37680   0.
CQUAD4   58874   3       43976   44909   44896   43957   0.
CQUAD4   58879   3       43953   44890   22066   11043   0.
CQUAD4   58897   3       43974   44911   22088   11065   0.
CQUAD4   58919   3       43993   44930   22121   11098   0.
CQUAD4   58954   3       44909   44990   44977   44896   0.
CQUAD4   58959   3       44890   44971   22192   22066   0.
CQUAD4   58977   3       44911   44992   22214   22088   0.
CQUAD4   58999   3       44930   45011   22247   22121   0.
CQUAD4   59034   3       44990   45071   45058   44977   0.
CQUAD4   59039   3       44971   45052   22318   22192   0.
CQUAD4   59057   3       44992   45073   22340   22214   0.
CQUAD4   59079   3       45011   45092   22373   22247   0.
CQUAD4   59114   3       45071   45152   45139   45058   0.
CQUAD4   59119   3       45052   45133   22444   22318   0.
CQUAD4   59137   3       45073   45154   22466   22340   0.
CQUAD4   59159   3       45092   45173   22499   22373   0.
CQUAD4   59194   3       45152   2814    2813    45139   0.
CQUAD4   59199   3       45133   2812    1636    22444   0.
CQUAD4   59217   3       45154   2816    1654    22466   0.
CQUAD4   59239   3       45173   2819    1675    22499   0.
CQUAD4   59512   3       44098   45401   22769   11246   0.
CQUAD4   59513   3       44102   45407   44896   43957   0.
CQUAD4   59514   3       44101   45408   45407   44102   0.
CQUAD4   59515   3       43953   44890   45408   44101   0.
CQUAD4   59516   3       11215   22746   44890   43953   0.
CQUAD4   59532   3       44121   45421   45404   44095   0.
CQUAD4   59535   3       44103   45406   44896   43957   0.
CQUAD4   59536   3       44104   45405   45406   44103   0.
CQUAD4   59537   3       44095   45404   45405   44104   0.
CQUAD4   59538   3       44127   45426   45414   44105   0.
CQUAD4   59539   3       44126   45427   45426   44127   0.
CQUAD4   59540   3       44125   45428   45427   44126   0.
CQUAD4   59541   3       44096   45403   45404   44095   0.
CQUAD4   59542   3       44097   45402   45403   44096   0.
CQUAD4   59543   3       44098   45401   45402   44097   0.
CQUAD4   59544   3       44111   45416   45401   44098   0.
CQUAD4   59545   3       44112   45415   45416   44111   0.
CQUAD4   59546   3       44105   45414   45415   44112   0.
CQUAD4   59550   3       11253   22782   45414   44105   0.
CQUAD4   59559   3       44145   45448   45447   44146   0.
CQUAD4   59574   3       44125   45428   45429   44124   0.
CQUAD4   59575   3       44136   45441   45428   44125   0.
CQUAD4   59576   3       11300   22823   45441   44136   0.
CQUAD4   59595   3       44145   45448   45449   44144   0.
CQUAD4   59596   3       44158   45463   45448   44145   0.
CQUAD4   59597   3       11333   22850   45463   44158   0.
CQUAD4   59614   3       45401   45494   22891   22769   0.
CQUAD4   59615   3       45407   45500   44977   44896   0.
CQUAD4   59616   3       45408   45501   45500   45407   0.
CQUAD4   59617   3       44890   44971   45501   45408   0.
CQUAD4   59618   3       22746   22868   44971   44890   0.
CQUAD4   59634   3       45421   45514   45497   45404   0.
CQUAD4   59637   3       45406   45499   44977   44896   0.
CQUAD4   59638   3       45405   45498   45499   45406   0.
CQUAD4   59639   3       45404   45497   45498   45405   0.
CQUAD4   59640   3       45426   45519   45507   45414   0.
CQUAD4   59641   3       45427   45520   45519   45426   0.
CQUAD4   59642   3       45428   45521   45520   45427   0.
CQUAD4   59643   3       45403   45496   45497   45404   0.
CQUAD4   59644   3       45402   45495   45496   45403   0.
CQUAD4   59645   3       45401   45494   45495   45402   0.
CQUAD4   59646   3       45416   45509   45494   45401   0.
CQUAD4   59647   3       45415   45508   45509   45416   0.
CQUAD4   59648   3       45414   45507   45508   45415   0.
CQUAD4   59652   3       22782   22904   45507   45414   0.
CQUAD4   59661   3       45448   45541   45540   45447   0.
CQUAD4   59676   3       45428   45521   45522   45429   0.
CQUAD4   59677   3       45441   45534   45521   45428   0.
CQUAD4   59678   3       22823   22945   45534   45441   0.
CQUAD4   59697   3       45448   45541   45542   45449   0.
CQUAD4   59698   3       45463   45556   45541   45448   0.
CQUAD4   59699   3       22850   22972   45556   45463   0.
CQUAD4   59716   3       45494   45587   23013   22891   0.
CQUAD4   59717   3       45500   45593   45058   44977   0.
CQUAD4   59718   3       45501   45594   45593   45500   0.
CQUAD4   59719   3       44971   45052   45594   45501   0.
CQUAD4   59720   3       22868   22990   45052   44971   0.
CQUAD4   59736   3       45514   45607   45590   45497   0.
CQUAD4   59739   3       45499   45592   45058   44977   0.
CQUAD4   59740   3       45498   45591   45592   45499   0.
CQUAD4   59741   3       45497   45590   45591   45498   0.
CQUAD4   59742   3       45519   45612   45600   45507   0.
CQUAD4   59743   3       45520   45613   45612   45519   0.
CQUAD4   59744   3       45521   45614   45613   45520   0.
CQUAD4   59745   3       45496   45589   45590   45497   0.
CQUAD4   59746   3       45495   45588   45589   45496   0.
CQUAD4   59747   3       45494   45587   45588   45495   0.
CQUAD4   59748   3       45509   45602   45587   45494   0.
CQUAD4   59749   3       45508   45601   45602   45509   0.
CQUAD4   59750   3       45507   45600   45601   45508   0.
CQUAD4   59754   3       22904   23026   45600   45507   0.
CQUAD4   59763   3       45541   45634   45633   45540   0.
CQUAD4   59778   3       45521   45614   45615   45522   0.
CQUAD4   59779   3       45534   45627   45614   45521   0.
CQUAD4   59780   3       22945   23067   45627   45534   0.
CQUAD4   59799   3       45541   45634   45635   45542   0.
CQUAD4   59800   3       45556   45649   45634   45541   0.
CQUAD4   59801   3       22972   23094   45649   45556   0.
CQUAD4   59818   3       45587   45680   23135   23013   0.
CQUAD4   59819   3       45593   45686   45139   45058   0.
CQUAD4   59820   3       45594   45687   45686   45593   0.
CQUAD4   59821   3       45052   45133   45687   45594   0.
CQUAD4   59822   3       22990   23112   45133   45052   0.
CQUAD4   59838   3       45607   45700   45683   45590   0.
CQUAD4   59841   3       45592   45685   45139   45058   0.
CQUAD4   59842   3       45591   45684   45685   45592   0.
CQUAD4   59843   3       45590   45683   45684   45591   0.
CQUAD4   59844   3       45612   45705   45693   45600   0.
CQUAD4   59845   3       45613   45706   45705   45612   0.
CQUAD4   59846   3       45614   45707   45706   45613   0.
CQUAD4   59847   3       45589   45682   45683   45590   0.
CQUAD4   59848   3       45588   45681   45682   45589   0.
CQUAD4   59849   3       45587   45680   45681   45588   0.
CQUAD4   59850   3       45602   45695   45680   45587   0.
CQUAD4   59851   3       45601   45694   45695   45602   0.
CQUAD4   59852   3       45600   45693   45694   45601   0.
CQUAD4   59856   3       23026   23148   45693   45600   0.
CQUAD4   59865   3       45634   45727   45726   45633   0.
CQUAD4   59880   3       45614   45707   45708   45615   0.
CQUAD4   59881   3       45627   45720   45707   45614   0.
CQUAD4   59882   3       23067   23189   45720   45627   0.
CQUAD4   59901   3       45634   45727   45728   45635   0.
CQUAD4   59902   3       45649   45742   45727   45634   0.
CQUAD4   59903   3       23094   23216   45742   45649   0.
CQUAD4   59920   3       45680   2835    2112    23135   0.
CQUAD4   59921   3       45686   2821    2813    45139   0.
CQUAD4   59922   3       45687   2820    2821    45686   0.
CQUAD4   59923   3       45133   2812    2820    45687   0.
CQUAD4   59924   3       23112   2089    2812    45133   0.
CQUAD4   59940   3       45700   2844    2838    45683   0.
CQUAD4   59943   3       45685   2840    2813    45139   0.
CQUAD4   59944   3       45684   2839    2840    45685   0.
CQUAD4   59945   3       45683   2838    2839    45684   0.
CQUAD4   59946   3       45705   2845    2841    45693   0.
CQUAD4   59947   3       45706   2846    2845    45705   0.
CQUAD4   59948   3       45707   2847    2846    45706   0.
CQUAD4   59949   3       45682   2837    2838    45683   0.
CQUAD4   59950   3       45681   2836    2837    45682   0.
CQUAD4   59951   3       45680   2835    2836    45681   0.
CQUAD4   59952   3       45695   2843    2835    45680   0.
CQUAD4   59953   3       45694   2842    2843    45695   0.
CQUAD4   59954   3       45693   2841    2842    45694   0.
CQUAD4   59958   3       23148   2117    2841    45693   0.
CQUAD4   59967   3       45727   2853    2852    45726   0.
CQUAD4   59982   3       45707   2847    2848    45708   0.
CQUAD4   59983   3       45720   2850    2847    45707   0.
CQUAD4   59984   3       23189   2142    2850    45720   0.
CQUAD4   60003   3       45727   2853    2854    45728   0.
CQUAD4   60004   3       45742   2856    2853    45727   0.
CQUAD4   60005   3       23216   2158    2856    45742   0.
CQUAD4   60036   3       32521   33138   45774   45773   0.
CQUAD4   60037   3       45773   45774   33139   32519   0.
CQUAD4   60038   3       33138   33201   45776   45774   0.
CQUAD4   60039   3       45774   45776   33202   33139   0.
CQUAD4   60040   3       33201   33264   45778   45776   0.
CQUAD4   60041   3       45776   45778   33265   33202   0.
CQUAD4   60042   3       33264   33327   45780   45778   0.
CQUAD4   60043   3       45778   45780   33328   33265   0.
CQUAD4   60044   3       33327   2486    2916    45780   0.
CQUAD4   60045   3       45780   2916    2487    33328   0.
CQUAD4   60046   3       32487   33128   45784   45783   0.
CQUAD4   60047   3       45783   45784   33127   32489   0.
CQUAD4   60048   3       33128   33191   45786   45784   0.
CQUAD4   60049   3       45784   45786   33190   33127   0.
CQUAD4   60050   3       33191   33254   45788   45786   0.
CQUAD4   60051   3       45786   45788   33253   33190   0.
CQUAD4   60052   3       33254   33317   45790   45788   0.
CQUAD4   60053   3       45788   45790   33316   33253   0.
CQUAD4   60054   3       33317   2475    2917    45790   0.
CQUAD4   60055   3       45790   2917    2474    33316   0.
CQUAD4   60056   3       32654   32877   45794   45793   0.
CQUAD4   60057   3       45793   45794   32878   32653   0.
CQUAD4   60058   3       32877   32932   45796   45794   0.
CQUAD4   60059   3       45794   45796   32933   32878   0.
CQUAD4   60060   3       32932   32987   45798   45796   0.
CQUAD4   60061   3       45796   45798   32988   32933   0.
CQUAD4   60062   3       32987   33042   45800   45798   0.
CQUAD4   60063   3       45798   45800   33043   32988   0.
CQUAD4   60064   3       33042   2619    2918    45800   0.
CQUAD4   60065   3       45800   2918    2620    33043   0.
CQUAD4   60851   3       36464   46418   20786   10769   0.
CQUAD4   60852   3       36465   37075   46418   36464   0.
CQUAD4   60897   3       46418   46464   20912   20786   0.
CQUAD4   60898   3       37075   37155   46464   46418   0.
CQUAD4   60943   3       46464   46510   21038   20912   0.
CQUAD4   60944   3       37155   37235   46510   46464   0.
CQUAD4   60989   3       46510   46556   21164   21038   0.
CQUAD4   60990   3       37235   37315   46556   46510   0.
CQUAD4   61035   3       46556   2661    891     21164   0.
CQUAD4   61036   3       37315   2660    2661    46556   0.
CQUAD4   61953   3       46837   47040   37491   36533   0.
CQUAD4   61954   3       46834   47042   47041   46835   0.
CQUAD4   61963   3       36579   47053   37513   36557   0.
CQUAD4   61964   3       36578   47054   47053   36579   0.
CQUAD4   61965   3       36577   37527   47054   36578   0.
CQUAD4   61966   3       46893   47061   46977   46896   0.
CQUAD4   61967   3       46891   47062   47061   46893   0.
CQUAD4   61968   3       46828   46976   47062   46891   0.
CQUAD4   61972   3       46866   47051   47042   46834   0.
CQUAD4   61973   3       36557   37513   47050   46868   0.
CQUAD4   61982   3       36575   47057   37530   36574   0.
CQUAD4   61983   3       46876   47056   47057   36575   0.
CQUAD4   61984   3       36577   37527   47056   46876   0.
CQUAD4   61991   3       47040   47076   37556   37491   0.
CQUAD4   61992   3       47042   47078   47077   47041   0.
CQUAD4   62001   3       47053   47089   37578   37513   0.
CQUAD4   62002   3       47054   47090   47089   47053   0.
CQUAD4   62003   3       37527   37592   47090   47054   0.
CQUAD4   62004   3       47061   47097   46980   46977   0.
CQUAD4   62005   3       47062   47098   47097   47061   0.
CQUAD4   62006   3       46976   46979   47098   47062   0.
CQUAD4   62010   3       47051   47087   47078   47042   0.
CQUAD4   62011   3       37513   37578   47086   47050   0.
CQUAD4   62020   3       47057   47093   37595   37530   0.
CQUAD4   62021   3       47056   47092   47093   47057   0.
CQUAD4   62022   3       37527   37592   47092   47056   0.
CQUAD4   62029   3       47076   47112   37621   37556   0.
CQUAD4   62030   3       47078   47114   47113   47077   0.
CQUAD4   62039   3       47089   47125   37643   37578   0.
CQUAD4   62040   3       47090   47126   47125   47089   0.
CQUAD4   62041   3       37592   37657   47126   47090   0.
CQUAD4   62042   3       47097   47133   46983   46980   0.
CQUAD4   62043   3       47098   47134   47133   47097   0.
CQUAD4   62044   3       46979   46982   47134   47098   0.
CQUAD4   62048   3       47087   47123   47114   47078   0.
CQUAD4   62049   3       37578   37643   47122   47086   0.
CQUAD4   62058   3       47093   47129   37660   37595   0.
CQUAD4   62059   3       47092   47128   47129   47093   0.
CQUAD4   62060   3       37592   37657   47128   47092   0.
CQUAD4   62067   3       47112   47148   37686   37621   0.
CQUAD4   62068   3       47114   47150   47149   47113   0.
CQUAD4   62077   3       47125   47161   37708   37643   0.
CQUAD4   62078   3       47126   47162   47161   47125   0.
CQUAD4   62079   3       37657   37722   47162   47126   0.
CQUAD4   62080   3       47133   47169   46986   46983   0.
CQUAD4   62081   3       47134   47170   47169   47133   0.
CQUAD4   62082   3       46982   46985   47170   47134   0.
CQUAD4   62086   3       47123   47159   47150   47114   0.
CQUAD4   62087   3       37643   37708   47158   47122   0.
CQUAD4   62096   3       47129   47165   37725   37660   0.
CQUAD4   62097   3       47128   47164   47165   47129   0.
CQUAD4   62098   3       37657   37722   47164   47128   0.
CQUAD4   62105   3       47148   2927    2700    37686   0.
CQUAD4   62106   3       47150   2929    2928    47149   0.
CQUAD4   62115   3       47161   2714    2712    37708   0.
CQUAD4   62116   3       47162   2715    2714    47161   0.
CQUAD4   62117   3       37722   2716    2715    47162   0.
CQUAD4   62118   3       47169   2938    2937    46986   0.
CQUAD4   62119   3       47170   2939    2938    47169   0.
CQUAD4   62120   3       46985   2932    2939    47170   0.
CQUAD4   62124   3       47159   2934    2929    47150   0.
CQUAD4   62125   3       37708   2712    2933    47158   0.
CQUAD4   62134   3       47165   2717    2718    37725   0.
CQUAD4   62135   3       47164   2935    2717    47165   0.
CQUAD4   62136   3       37722   2716    2935    47164   0.
CQUAD4   62151   3       46946   46995   37046   36437   0.
CQUAD4   62152   3       46943   46993   46994   46947   0.
CQUAD4   62154   3       46944   46992   46993   46943   0.
CQUAD4   62155   3       46945   46991   46992   46944   0.
CQUAD4   62156   3       46828   46976   46991   46945   0.
CQUAD4   62163   3       46995   47006   37126   37046   0.
CQUAD4   62164   3       46993   47004   47005   46994   0.
CQUAD4   62166   3       46992   47003   47004   46993   0.
CQUAD4   62167   3       46991   47002   47003   46992   0.
CQUAD4   62168   3       46976   46979   47002   46991   0.
CQUAD4   62175   3       47006   47017   37206   37126   0.
CQUAD4   62176   3       47004   47015   47016   47005   0.
CQUAD4   62178   3       47003   47014   47015   47004   0.
CQUAD4   62179   3       47002   47013   47014   47003   0.
CQUAD4   62180   3       46979   46982   47013   47002   0.
CQUAD4   62187   3       47017   47028   37286   37206   0.
CQUAD4   62188   3       47015   47026   47027   47016   0.
CQUAD4   62190   3       47014   47025   47026   47015   0.
CQUAD4   62191   3       47013   47024   47025   47014   0.
CQUAD4   62192   3       46982   46985   47024   47013   0.
CQUAD4   62199   3       47028   2976    2657    37286   0.
CQUAD4   62200   3       47026   2974    2975    47027   0.
CQUAD4   62202   3       47025   2973    2974    47026   0.
CQUAD4   62203   3       47024   2972    2973    47025   0.
CQUAD4   62204   3       46985   2932    2972    47024   0.
CQUAD4   62260   3       46868   47050   47206   47205   0.
CQUAD4   62261   3       47205   47206   47051   46866   0.
CQUAD4   62262   3       47050   47086   47207   47206   0.
CQUAD4   62263   3       47206   47207   47087   47051   0.
CQUAD4   62264   3       47086   47122   47208   47207   0.
CQUAD4   62265   3       47207   47208   47123   47087   0.
CQUAD4   62266   3       47122   47158   47209   47208   0.
CQUAD4   62267   3       47208   47209   47159   47123   0.
CQUAD4   62268   3       47158   2933    2997    47209   0.
CQUAD4   62269   3       47209   2997    2934    47159   0.
CQUAD4   62270   3       46835   47041   47212   47211   0.
CQUAD4   62271   3       47211   47212   47040   46837   0.
CQUAD4   62272   3       47041   47077   47213   47212   0.
CQUAD4   62273   3       47212   47213   47076   47040   0.
CQUAD4   62274   3       47077   47113   47214   47213   0.
CQUAD4   62275   3       47213   47214   47112   47076   0.
CQUAD4   62276   3       47113   47149   47215   47214   0.
CQUAD4   62277   3       47214   47215   47148   47112   0.
CQUAD4   62278   3       47149   2928    2998    47215   0.
CQUAD4   62279   3       47215   2998    2927    47148   0.
CQUAD4   62280   3       46947   46994   47218   47217   0.
CQUAD4   62281   3       47217   47218   46995   46946   0.
CQUAD4   62282   3       46994   47005   47219   47218   0.
CQUAD4   62283   3       47218   47219   47006   46995   0.
CQUAD4   62284   3       47005   47016   47220   47219   0.
CQUAD4   62285   3       47219   47220   47017   47006   0.
CQUAD4   62286   3       47016   47027   47221   47220   0.
CQUAD4   62287   3       47220   47221   47028   47017   0.
CQUAD4   62288   3       47027   2975    2999    47221   0.
CQUAD4   62289   3       47221   2999    2976    47028   0.
CQUAD4   63065   3       11110   47836   44930   43993   0.
CQUAD4   63066   3       47543   47835   47836   11110   0.
CQUAD4   63067   3       11104   22131   47835   47543   0.
CQUAD4   63068   3       11105   47833   22131   11104   0.
CQUAD4   63069   3       11106   47832   47833   11105   0.
CQUAD4   63070   3       11107   22128   47832   11106   0.
CQUAD4   63111   3       47836   47882   45011   44930   0.
CQUAD4   63112   3       47835   47881   47882   47836   0.
CQUAD4   63113   3       22131   22257   47881   47835   0.
CQUAD4   63114   3       47833   47879   22257   22131   0.
CQUAD4   63115   3       47832   47878   47879   47833   0.
CQUAD4   63116   3       22128   22254   47878   47832   0.
CQUAD4   63157   3       47882   47928   45092   45011   0.
CQUAD4   63158   3       47881   47927   47928   47882   0.
CQUAD4   63159   3       22257   22383   47927   47881   0.
CQUAD4   63160   3       47879   47925   22383   22257   0.
CQUAD4   63161   3       47878   47924   47925   47879   0.
CQUAD4   63162   3       22254   22380   47924   47878   0.
CQUAD4   63203   3       47928   47974   45173   45092   0.
CQUAD4   63204   3       47927   47973   47974   47928   0.
CQUAD4   63205   3       22383   22509   47973   47927   0.
CQUAD4   63206   3       47925   47971   22509   22383   0.
CQUAD4   63207   3       47924   47970   47971   47925   0.
CQUAD4   63208   3       22380   22506   47970   47924   0.
CQUAD4   63249   3       47974   1684    2819    45173   0.
CQUAD4   63250   3       47973   3001    1684    47974   0.
CQUAD4   63251   3       22509   1683    3001    47973   0.
CQUAD4   63252   3       47971   1682    1683    22509   0.
CQUAD4   63253   3       47970   1681    1682    47971   0.
CQUAD4   63254   3       22506   1680    1681    47970   0.
CQUAD4   64172   3       48248   48456   48455   48249   0.
CQUAD4   64181   3       44147   48467   48463   48260   0.
CQUAD4   64182   3       44146   45447   48467   44147   0.
CQUAD4   64184   3       48307   48475   48391   48310   0.
CQUAD4   64185   3       48305   48476   48475   48307   0.
CQUAD4   64186   3       48242   48390   48476   48305   0.
CQUAD4   64190   3       48280   48465   48456   48248   0.
CQUAD4   64191   3       48260   48463   48464   48282   0.
CQUAD4   64192   3       44123   48462   48463   48260   0.
CQUAD4   64193   3       44124   45429   48462   44123   0.
CQUAD4   64196   3       11347   48479   48472   48287   0.
CQUAD4   64197   3       11346   22857   48479   11347   0.
CQUAD4   64200   3       44143   48471   48472   48287   0.
CQUAD4   64201   3       44144   45449   48471   44143   0.
CQUAD4   64210   3       48456   48492   48491   48455   0.
CQUAD4   64219   3       48467   48503   48499   48463   0.
CQUAD4   64220   3       45447   45540   48503   48467   0.
CQUAD4   64222   3       48475   48511   48394   48391   0.
CQUAD4   64223   3       48476   48512   48511   48475   0.
CQUAD4   64224   3       48390   48393   48512   48476   0.
CQUAD4   64228   3       48465   48501   48492   48456   0.
CQUAD4   64229   3       48463   48499   48500   48464   0.
CQUAD4   64230   3       48462   48498   48499   48463   0.
CQUAD4   64231   3       45429   45522   48498   48462   0.
CQUAD4   64234   3       48479   48515   48508   48472   0.
CQUAD4   64235   3       22857   22979   48515   48479   0.
CQUAD4   64238   3       48471   48507   48508   48472   0.
CQUAD4   64239   3       45449   45542   48507   48471   0.
CQUAD4   64248   3       48492   48528   48527   48491   0.
CQUAD4   64257   3       48503   48539   48535   48499   0.
CQUAD4   64258   3       45540   45633   48539   48503   0.
CQUAD4   64260   3       48511   48547   48397   48394   0.
CQUAD4   64261   3       48512   48548   48547   48511   0.
CQUAD4   64262   3       48393   48396   48548   48512   0.
CQUAD4   64266   3       48501   48537   48528   48492   0.
CQUAD4   64267   3       48499   48535   48536   48500   0.
CQUAD4   64268   3       48498   48534   48535   48499   0.
CQUAD4   64269   3       45522   45615   48534   48498   0.
CQUAD4   64272   3       48515   48551   48544   48508   0.
CQUAD4   64273   3       22979   23101   48551   48515   0.
CQUAD4   64276   3       48507   48543   48544   48508   0.
CQUAD4   64277   3       45542   45635   48543   48507   0.
CQUAD4   64286   3       48528   48564   48563   48527   0.
CQUAD4   64295   3       48539   48575   48571   48535   0.
CQUAD4   64296   3       45633   45726   48575   48539   0.
CQUAD4   64298   3       48547   48583   48400   48397   0.
CQUAD4   64299   3       48548   48584   48583   48547   0.
CQUAD4   64300   3       48396   48399   48584   48548   0.
CQUAD4   64304   3       48537   48573   48564   48528   0.
CQUAD4   64305   3       48535   48571   48572   48536   0.
CQUAD4   64306   3       48534   48570   48571   48535   0.
CQUAD4   64307   3       45615   45708   48570   48534   0.
CQUAD4   64310   3       48551   48587   48580   48544   0.
CQUAD4   64311   3       23101   23223   48587   48551   0.
CQUAD4   64314   3       48543   48579   48580   48544   0.
CQUAD4   64315   3       45635   45728   48579   48543   0.
CQUAD4   64324   3       48564   3015    3014    48563   0.
CQUAD4   64333   3       48575   2851    3019    48571   0.
CQUAD4   64334   3       45726   2852    2851    48575   0.
CQUAD4   64336   3       48583   3026    3025    48400   0.
CQUAD4   64337   3       48584   3027    3026    48583   0.
CQUAD4   64338   3       48399   3018    3027    48584   0.
CQUAD4   64342   3       48573   3021    3015    48564   0.
CQUAD4   64343   3       48571   3019    3020    48572   0.
CQUAD4   64344   3       48570   2849    3019    48571   0.
CQUAD4   64345   3       45708   2848    2849    48570   0.
CQUAD4   64348   3       48587   2163    3022    48580   0.
CQUAD4   64349   3       23223   2164    2163    48587   0.
CQUAD4   64352   3       48579   2855    3022    48580   0.
CQUAD4   64353   3       45728   2854    2855    48579   0.
CQUAD4   64364   3       43975   48402   44909   43976   0.
CQUAD4   64365   3       43974   44911   48402   43975   0.
CQUAD4   64369   3       43983   48409   44911   43974   0.
CQUAD4   64370   3       48357   48407   48408   48361   0.
CQUAD4   64372   3       48358   48406   48407   48357   0.
CQUAD4   64373   3       48359   48405   48406   48358   0.
CQUAD4   64374   3       48242   48390   48405   48359   0.
CQUAD4   64376   3       48402   48413   44990   44909   0.
CQUAD4   64377   3       44911   44992   48413   48402   0.
CQUAD4   64381   3       48409   48420   44992   44911   0.
CQUAD4   64382   3       48407   48418   48419   48408   0.
CQUAD4   64384   3       48406   48417   48418   48407   0.
CQUAD4   64385   3       48405   48416   48417   48406   0.
CQUAD4   64386   3       48390   48393   48416   48405   0.
CQUAD4   64388   3       48413   48424   45071   44990   0.
CQUAD4   64389   3       44992   45073   48424   48413   0.
CQUAD4   64393   3       48420   48431   45073   44992   0.
CQUAD4   64394   3       48418   48429   48430   48419   0.
CQUAD4   64396   3       48417   48428   48429   48418   0.
CQUAD4   64397   3       48416   48427   48428   48417   0.
CQUAD4   64398   3       48393   48396   48427   48416   0.
CQUAD4   64400   3       48424   48435   45152   45071   0.
CQUAD4   64401   3       45073   45154   48435   48424   0.
CQUAD4   64405   3       48431   48442   45154   45073   0.
CQUAD4   64406   3       48429   48440   48441   48430   0.
CQUAD4   64408   3       48428   48439   48440   48429   0.
CQUAD4   64409   3       48427   48438   48439   48428   0.
CQUAD4   64410   3       48396   48399   48438   48427   0.
CQUAD4   64412   3       48435   2815    2814    45152   0.
CQUAD4   64413   3       45154   2816    2815    48435   0.
CQUAD4   64417   3       48442   2817    2816    45154   0.
CQUAD4   64418   3       48440   3066    3067    48441   0.
CQUAD4   64420   3       48439   3065    3066    48440   0.
CQUAD4   64421   3       48438   3064    3065    48439   0.
CQUAD4   64422   3       48399   3018    3064    48438   0.
CQUAD4   64478   3       48282   48464   48620   48619   0.
CQUAD4   64479   3       48619   48620   48465   48280   0.
CQUAD4   64480   3       48464   48500   48621   48620   0.
CQUAD4   64481   3       48620   48621   48501   48465   0.
CQUAD4   64482   3       48500   48536   48622   48621   0.
CQUAD4   64483   3       48621   48622   48537   48501   0.
CQUAD4   64484   3       48536   48572   48623   48622   0.
CQUAD4   64485   3       48622   48623   48573   48537   0.
CQUAD4   64486   3       48572   3020    3088    48623   0.
CQUAD4   64487   3       48623   3088    3021    48573   0.
CQUAD4   64488   3       48249   48455   48626   48625   0.
CQUAD4   64489   3       48625   48626   45421   44121   0.
CQUAD4   64490   3       48455   48491   48627   48626   0.
CQUAD4   64491   3       48626   48627   45514   45421   0.
CQUAD4   64492   3       48491   48527   48628   48627   0.
CQUAD4   64493   3       48627   48628   45607   45514   0.
CQUAD4   64494   3       48527   48563   48629   48628   0.
CQUAD4   64495   3       48628   48629   45700   45607   0.
CQUAD4   64496   3       48563   3014    3089    48629   0.
CQUAD4   64497   3       48629   3089    2844    45700   0.
CQUAD4   64498   3       48361   48408   48632   48631   0.
CQUAD4   64499   3       48631   48632   48409   43983   0.
CQUAD4   64500   3       48408   48419   48633   48632   0.
CQUAD4   64501   3       48632   48633   48420   48409   0.
CQUAD4   64502   3       48419   48430   48634   48633   0.
CQUAD4   64503   3       48633   48634   48431   48420   0.
CQUAD4   64504   3       48430   48441   48635   48634   0.
CQUAD4   64505   3       48634   48635   48442   48431   0.
CQUAD4   64506   3       48441   3067    3090    48635   0.
CQUAD4   64507   3       48635   3090    2817    48442   0.
CQUAD4   66857   3       10606   20111   50436   50434   0.
CQUAD4   66858   3       50434   50436   20110   10607   0.
CQUAD4   66859   3       20111   20237   50438   50436   0.
CQUAD4   66860   3       50436   50438   20236   20110   0.
CQUAD4   66861   3       20237   20363   50440   50438   0.
CQUAD4   66862   3       50438   50440   20362   20236   0.
CQUAD4   66863   3       20363   20489   50442   50440   0.
CQUAD4   66864   3       50440   50442   20488   20362   0.
CQUAD4   66865   3       20489   526     3091    50442   0.
CQUAD4   66866   3       50442   3091    525     20488   0.
CQUAD4   66867   3       10576   20081   50446   50420   0.
CQUAD4   66868   3       50420   50446   20082   10575   0.
CQUAD4   66869   3       20081   20207   50448   50446   0.
CQUAD4   66870   3       50446   50448   20208   20082   0.
CQUAD4   66871   3       20207   20333   50450   50448   0.
CQUAD4   66872   3       50448   50450   20334   20208   0.
CQUAD4   66873   3       20333   20459   50452   50450   0.
CQUAD4   66874   3       50450   50452   20460   20334   0.
CQUAD4   66875   3       20459   509     3092    50452   0.
CQUAD4   66876   3       50452   3092    510     20460   0.
CQUAD4   66877   3       10784   20793   50456   50425   0.
CQUAD4   66878   3       50425   50456   20792   10785   0.
CQUAD4   66879   3       20793   20919   50458   50456   0.
CQUAD4   66880   3       50456   50458   20918   20792   0.
CQUAD4   66881   3       20919   21045   50460   50458   0.
CQUAD4   66882   3       50458   50460   21044   20918   0.
CQUAD4   66883   3       21045   21171   50462   50460   0.
CQUAD4   66884   3       50460   50462   21170   21044   0.
CQUAD4   66885   3       21171   897     3093    50462   0.
CQUAD4   66886   3       50462   3093    896     21170   0.
CQUAD4   66887   3       10826   20828   50466   50432   0.
CQUAD4   66888   3       50432   50466   20829   10825   0.
CQUAD4   66889   3       20828   20954   50468   50466   0.
CQUAD4   66890   3       50466   50468   20955   20829   0.
CQUAD4   66891   3       20954   21080   50470   50468   0.
CQUAD4   66892   3       50468   50470   21081   20955   0.
CQUAD4   66893   3       21080   21206   50472   50470   0.
CQUAD4   66894   3       50470   50472   21207   21081   0.
CQUAD4   66895   3       21206   932     3094    50472   0.
CQUAD4   66896   3       50472   3094    933     21207   0.
CQUAD4   66927   3       11162   22172   50484   50479   0.
CQUAD4   66928   3       50479   50484   22173   11161   0.
CQUAD4   66929   3       22172   22298   50486   50484   0.
CQUAD4   66930   3       50484   50486   22299   22173   0.
CQUAD4   66931   3       22298   22424   50488   50486   0.
CQUAD4   66932   3       50486   50488   22425   22299   0.
CQUAD4   66933   3       22550   1723    3095    50491   0.
CQUAD4   66934   3       50491   3095    1724    22551   0.
CQUAD4   66935   3       22424   22550   50491   50488   0.
CQUAD4   66936   3       50488   50491   22551   22425   0.
CQUAD4   66937   3       10908   21425   50494   50478   0.
CQUAD4   66938   3       50478   50494   21426   10907   0.
CQUAD4   66939   3       21425   21551   50496   50494   0.
CQUAD4   66940   3       50494   50496   21552   21426   0.
CQUAD4   66941   3       21551   21677   50498   50496   0.
CQUAD4   66942   3       50496   50498   21678   21552   0.
CQUAD4   66943   3       21677   21803   50500   50498   0.
CQUAD4   66944   3       50498   50500   21804   21678   0.
CQUAD4   66945   3       21803   1311    3096    50500   0.
CQUAD4   66946   3       50500   3096    1312    21804   0.
$ Elements and Element Properties for region : pshellr.15
PSHELL   15      1       .015    1               1
$ Pset: "pshellr.15" will be imported as: "pshell.15"
CQUAD4   64198   15      48311   48474   48391   48310   0.
CQUAD4   64199   15      48287   48472   48473   48313   0.
CQUAD4   64236   15      48474   48510   48394   48391   0.
CQUAD4   64237   15      48472   48508   48509   48473   0.
CQUAD4   64274   15      48510   48546   48397   48394   0.
CQUAD4   64275   15      48508   48544   48545   48509   0.
CQUAD4   64312   15      48546   48582   48400   48397   0.
CQUAD4   64313   15      48544   48580   48581   48545   0.
CQUAD4   64350   15      48582   3024    3025    48400   0.
CQUAD4   64351   15      48580   3022    3023    48581   0.
CQUAD4   64468   15      48313   48473   48614   48613   0.
CQUAD4   64469   15      48613   48614   48474   48311   0.
CQUAD4   64470   15      48473   48509   48615   48614   0.
CQUAD4   64471   15      48614   48615   48510   48474   0.
CQUAD4   64472   15      48509   48545   48616   48615   0.
CQUAD4   64473   15      48615   48616   48546   48510   0.
CQUAD4   64474   15      48545   48581   48617   48616   0.
CQUAD4   64475   15      48616   48617   48582   48546   0.
CQUAD4   64476   15      48581   3023    3087    48617   0.
CQUAD4   64477   15      48617   3087    3024    48582   0.
$ Elements and Element Properties for region : pshellr.25
PSHELL   25      1       .025    1               1
$ Pset: "pshellr.25" will be imported as: "pshell.25"
CQUAD4   63046   25      11107   22128   47830   47538   0.
CQUAD4   63092   25      22128   22254   47876   47830   0.
CQUAD4   63138   25      22254   22380   47922   47876   0.
CQUAD4   63184   25      22380   22506   47968   47922   0.
CQUAD4   63230   25      22506   1680    3000    47968   0.
CQUAD4   64371   25      48363   48411   48391   48310   0.
CQUAD4   64383   25      48411   48422   48394   48391   0.
CQUAD4   64395   25      48422   48433   48397   48394   0.
CQUAD4   64407   25      48433   48444   48400   48397   0.
CQUAD4   64419   25      48444   3069    3025    48400   0.
CQUAD4   64458   25      47538   47830   48608   48607   0.
CQUAD4   64459   25      48607   48608   48411   48363   0.
CQUAD4   64460   25      47830   47876   48609   48608   0.
CQUAD4   64461   25      48608   48609   48422   48411   0.
CQUAD4   64462   25      47876   47922   48610   48609   0.
CQUAD4   64463   25      48609   48610   48433   48422   0.
CQUAD4   64464   25      47922   47968   48611   48610   0.
CQUAD4   64465   25      48610   48611   48444   48433   0.
CQUAD4   64466   25      47968   3000    3086    48611   0.
CQUAD4   64467   25      48611   3086    3069    48444   0.
$ Elements and Element Properties for region : pshellr.30
PSHELL   30      1       .03     1               1
$ Pset: "pshellr.30" will be imported as: "pshell.30"
CQUAD4   39913   30      32558   33149   32840   32557   0.
CQUAD4   39915   30      32534   33147   33148   32560   0.
CQUAD4   39982   30      33149   33212   32844   32840   0.
CQUAD4   39984   30      33147   33210   33211   33148   0.
CQUAD4   40051   30      33212   33275   32848   32844   0.
CQUAD4   40053   30      33210   33273   33274   33211   0.
CQUAD4   40120   30      33275   33338   32852   32848   0.
CQUAD4   40122   30      33273   33336   33337   33274   0.
CQUAD4   40189   30      33338   2497    2498    32852   0.
CQUAD4   40191   30      33336   2495    2496    33337   0.
CQUAD4   60026   30      32560   33148   45764   45763   0.
CQUAD4   60027   30      45763   45764   33149   32558   0.
CQUAD4   60028   30      33148   33211   45766   45764   0.
CQUAD4   60029   30      45764   45766   33212   33149   0.
CQUAD4   60030   30      33211   33274   45768   45766   0.
CQUAD4   60031   30      45766   45768   33275   33212   0.
CQUAD4   60032   30      33274   33337   45770   45768   0.
CQUAD4   60033   30      45768   45770   33338   33275   0.
CQUAD4   60034   30      33337   2496    2915    45770   0.
CQUAD4   60035   30      45770   2915    2497    33338   0.
$ Elements and Element Properties for region : pshellr.35
PSHELL   35      1       .035    1               1
$ Pset: "pshellr.35" will be imported as: "pshell.35"
CQUAD4   61980   35      46897   47060   46977   46896   0.
CQUAD4   61981   35      36574   37530   47059   36583   0.
CQUAD4   62018   35      47060   47096   46980   46977   0.
CQUAD4   62019   35      37530   37595   47095   47059   0.
CQUAD4   62056   35      47096   47132   46983   46980   0.
CQUAD4   62057   35      37595   37660   47131   47095   0.
CQUAD4   62094   35      47132   47168   46986   46983   0.
CQUAD4   62095   35      37660   37725   47167   47131   0.
CQUAD4   62132   35      47168   2936    2937    46986   0.
CQUAD4   62133   35      37725   2718    2719    47167   0.
CQUAD4   62250   35      36583   47059   47200   47199   0.
CQUAD4   62251   35      47199   47200   47060   46897   0.
CQUAD4   62252   35      47059   47095   47201   47200   0.
CQUAD4   62253   35      47200   47201   47096   47060   0.
CQUAD4   62254   35      47095   47131   47202   47201   0.
CQUAD4   62255   35      47201   47202   47132   47096   0.
CQUAD4   62256   35      47131   47167   47203   47202   0.
CQUAD4   62257   35      47202   47203   47168   47132   0.
CQUAD4   62258   35      47167   2719    2996    47203   0.
CQUAD4   62259   35      47203   2996    2936    47168   0.
$ Elements and Element Properties for region : pshellr.40
PSHELL   40      1       .04     1               1
$ Pset: "pshellr.40" will be imported as: "pshell.40"
CQUAD4   20046   40      10210   23444   23443   10211   0.
CQUAD4   20183   40      23444   23566   23565   23443   0.
CQUAD4   20320   40      23566   23688   23687   23565   0.
CQUAD4   20457   40      23688   23810   23809   23687   0.
CQUAD4   20594   40      23810   52      51      23809   0.
CQUAD4   40268   40      32673   32892   32840   32557   0.
CQUAD4   40271   40      32651   32875   32876   32650   0.
CQUAD4   40272   40      32652   32874   32875   32651   0.
CQUAD4   40273   40      32480   32839   32874   32652   0.
CQUAD4   40327   40      32892   32947   32844   32840   0.
CQUAD4   40330   40      32875   32930   32931   32876   0.
CQUAD4   40331   40      32874   32929   32930   32875   0.
CQUAD4   40332   40      32839   32843   32929   32874   0.
CQUAD4   40386   40      32947   33002   32848   32844   0.
CQUAD4   40389   40      32930   32985   32986   32931   0.
CQUAD4   40390   40      32929   32984   32985   32930   0.
CQUAD4   40391   40      32843   32847   32984   32929   0.
CQUAD4   40445   40      33002   33057   32852   32848   0.
CQUAD4   40448   40      32985   33040   33041   32986   0.
CQUAD4   40449   40      32984   33039   33040   32985   0.
CQUAD4   40450   40      32847   32851   33039   32984   0.
CQUAD4   40504   40      33057   2622    2498    32852   0.
CQUAD4   40507   40      33040   2617    2618    33041   0.
CQUAD4   40508   40      33039   2616    2617    33040   0.
CQUAD4   40509   40      32851   2479    2616    33039   0.
CQUAD4   60016   40      10211   23443   45754   45753   0.
CQUAD4   60017   40      45753   45754   32892   32673   0.
CQUAD4   60018   40      23443   23565   45756   45754   0.
CQUAD4   60019   40      45754   45756   32947   32892   0.
CQUAD4   60020   40      23565   23687   45758   45756   0.
CQUAD4   60021   40      45756   45758   33002   32947   0.
CQUAD4   60022   40      23687   23809   45760   45758   0.
CQUAD4   60023   40      45758   45760   33057   33002   0.
CQUAD4   60024   40      23809   51      2914    45760   0.
CQUAD4   60025   40      45760   2914    2622    33057   0.
CQUAD4   60828   40      36465   37075   46416   36466   0.
CQUAD4   60874   40      37075   37155   46462   46416   0.
CQUAD4   60920   40      37155   37235   46508   46462   0.
CQUAD4   60966   40      37235   37315   46554   46508   0.
CQUAD4   61012   40      37315   2660    2659    46554   0.
CQUAD4   62153   40      46949   46997   46977   46896   0.
CQUAD4   62165   40      46997   47008   46980   46977   0.
CQUAD4   62177   40      47008   47019   46983   46980   0.
CQUAD4   62189   40      47019   47030   46986   46983   0.
CQUAD4   62201   40      47030   2978    2937    46986   0.
CQUAD4   62240   40      36466   46416   47194   47193   0.
CQUAD4   62241   40      47193   47194   46997   46949   0.
CQUAD4   62242   40      46416   46462   47195   47194   0.
CQUAD4   62243   40      47194   47195   47008   46997   0.
CQUAD4   62244   40      46462   46508   47196   47195   0.
CQUAD4   62245   40      47195   47196   47019   47008   0.
CQUAD4   62246   40      46508   46554   47197   47196   0.
CQUAD4   62247   40      47196   47197   47030   47019   0.
CQUAD4   62248   40      46554   2659    2995    47197   0.
CQUAD4   62249   40      47197   2995    2978    47030   0.
$ Elements and Element Properties for region : pshellr.50
PSHELL   50      1       .05     1               1
$ Pset: "pshellr.50" will be imported as: "pshell.50"
CQUAD4   20037   50      10183   23436   23435   10184   0.
CQUAD4   20174   50      23436   23558   23557   23435   0.
CQUAD4   20311   50      23558   23680   23679   23557   0.
CQUAD4   20448   50      23680   23802   23801   23679   0.
CQUAD4   20585   50      23802   45      44      23801   0.
CQUAD4   21907   50      10763   20776   20775   10764   0.
CQUAD4   22044   50      20776   20902   20901   20775   0.
CQUAD4   22181   50      20902   21028   21027   20901   0.
CQUAD4   22318   50      21028   21154   21153   21027   0.
CQUAD4   22455   50      21154   885     884     21153   0.
CQUAD4   40259   50      32665   32884   32876   32650   0.
CQUAD4   40318   50      32884   32939   32931   32876   0.
CQUAD4   40377   50      32939   32994   32986   32931   0.
CQUAD4   40436   50      32994   33049   33041   32986   0.
CQUAD4   40495   50      33049   2621    2618    33041   0.
CQUAD4   60006   50      10184   23435   45744   45743   0.
CQUAD4   60007   50      45743   45744   32884   32665   0.
CQUAD4   60008   50      23435   23557   45746   45744   0.
CQUAD4   60009   50      45744   45746   32939   32884   0.
CQUAD4   60010   50      23557   23679   45748   45746   0.
CQUAD4   60011   50      45746   45748   32994   32939   0.
CQUAD4   60012   50      23679   23801   45750   45748   0.
CQUAD4   60013   50      45748   45750   33049   32994   0.
CQUAD4   60014   50      23801   44      2913    45750   0.
CQUAD4   60015   50      45750   2913    2621    33049   0.
CQUAD4   62148   50      46948   46996   46993   46943   0.
CQUAD4   62160   50      46996   47007   47004   46993   0.
CQUAD4   62172   50      47007   47018   47015   47004   0.
CQUAD4   62184   50      47018   47029   47026   47015   0.
CQUAD4   62196   50      47029   2977    2974    47026   0.
CQUAD4   62230   50      10764   20775   47188   47187   0.
CQUAD4   62231   50      47187   47188   46996   46948   0.
CQUAD4   62232   50      20775   20901   47189   47188   0.
CQUAD4   62233   50      47188   47189   47007   46996   0.
CQUAD4   62234   50      20901   21027   47190   47189   0.
CQUAD4   62235   50      47189   47190   47018   47007   0.
CQUAD4   62236   50      21027   21153   47191   47190   0.
CQUAD4   62237   50      47190   47191   47029   47018   0.
CQUAD4   62238   50      21153   884     2994    47191   0.
CQUAD4   62239   50      47191   2994    2977    47029   0.
CQUAD4   63044   50      43993   44930   47823   43994   0.
CQUAD4   63090   50      44930   45011   47869   47823   0.
CQUAD4   63136   50      45011   45092   47915   47869   0.
CQUAD4   63182   50      45092   45173   47961   47915   0.
CQUAD4   63228   50      45173   2819    2818    47961   0.
CQUAD4   64366   50      48362   48410   48407   48357   0.
CQUAD4   64378   50      48410   48421   48418   48407   0.
CQUAD4   64390   50      48421   48432   48429   48418   0.
CQUAD4   64402   50      48432   48443   48440   48429   0.
CQUAD4   64414   50      48443   3068    3066    48440   0.
CQUAD4   64448   50      43994   47823   48602   48601   0.
CQUAD4   64449   50      48601   48602   48410   48362   0.
CQUAD4   64450   50      47823   47869   48603   48602   0.
CQUAD4   64451   50      48602   48603   48421   48410   0.
CQUAD4   64452   50      47869   47915   48604   48603   0.
CQUAD4   64453   50      48603   48604   48432   48421   0.
CQUAD4   64454   50      47915   47961   48605   48604   0.
CQUAD4   64455   50      48604   48605   48443   48432   0.
CQUAD4   64456   50      47961   2818    3085    48605   0.
CQUAD4   64457   50      48605   3085    3068    48443   0.
$ Elements and Element Properties for region : pshellr.55
PSHELL   55      1       .055    1               1
$ Pset: "pshellr.55" will be imported as: "pshell.55"
CQUAD4   39900   55      32481   33131   32839   32480   0.
CQUAD4   39901   55      32483   33130   33131   32481   0.
CQUAD4   39902   55      32486   33129   33130   32483   0.
CQUAD4   39969   55      33131   33194   32843   32839   0.
CQUAD4   39970   55      33130   33193   33194   33131   0.
CQUAD4   39971   55      33129   33192   33193   33130   0.
CQUAD4   40038   55      33194   33257   32847   32843   0.
CQUAD4   40039   55      33193   33256   33257   33194   0.
CQUAD4   40040   55      33192   33255   33256   33193   0.
CQUAD4   40107   55      33257   33320   32851   32847   0.
CQUAD4   40108   55      33256   33319   33320   33257   0.
CQUAD4   40109   55      33255   33318   33319   33256   0.
CQUAD4   40176   55      33320   2478    2479    32851   0.
CQUAD4   40177   55      33319   2477    2478    33320   0.
CQUAD4   40178   55      33318   2476    2477    33319   0.
CQUAD4   61969   55      46829   47044   46976   46828   0.
CQUAD4   61970   55      46831   47043   47044   46829   0.
CQUAD4   61971   55      46834   47042   47043   46831   0.
CQUAD4   62007   55      47044   47080   46979   46976   0.
CQUAD4   62008   55      47043   47079   47080   47044   0.
CQUAD4   62009   55      47042   47078   47079   47043   0.
CQUAD4   62045   55      47080   47116   46982   46979   0.
CQUAD4   62046   55      47079   47115   47116   47080   0.
CQUAD4   62047   55      47078   47114   47115   47079   0.
CQUAD4   62083   55      47116   47152   46985   46982   0.
CQUAD4   62084   55      47115   47151   47152   47116   0.
CQUAD4   62085   55      47114   47150   47151   47115   0.
CQUAD4   62121   55      47152   2931    2932    46985   0.
CQUAD4   62122   55      47151   2930    2931    47152   0.
CQUAD4   62123   55      47150   2929    2930    47151   0.
CQUAD4   64187   55      48243   48458   48390   48242   0.
CQUAD4   64188   55      48245   48457   48458   48243   0.
CQUAD4   64189   55      48248   48456   48457   48245   0.
CQUAD4   64225   55      48458   48494   48393   48390   0.
CQUAD4   64226   55      48457   48493   48494   48458   0.
CQUAD4   64227   55      48456   48492   48493   48457   0.
CQUAD4   64263   55      48494   48530   48396   48393   0.
CQUAD4   64264   55      48493   48529   48530   48494   0.
CQUAD4   64265   55      48492   48528   48529   48493   0.
CQUAD4   64301   55      48530   48566   48399   48396   0.
CQUAD4   64302   55      48529   48565   48566   48530   0.
CQUAD4   64303   55      48528   48564   48565   48529   0.
CQUAD4   64339   55      48566   3017    3018    48399   0.
CQUAD4   64340   55      48565   3016    3017    48566   0.
CQUAD4   64341   55      48564   3015    3016    48565   0.
$ Referenced Material Records
$ Material Record : mat1.1
$ Description of Material :
MAT1     1       9.8+6           .17     2.045-4 1.7-8
$ Nodes of Group : Mirror_All
GRID     1       1       4.57261 60.     .205848 1
GRID     2       1       4.3945  55.6934 .190093 1
GRID     3       1       4.24321 51.0517 .177207 1
GRID     4       1       4.1217  46.1021 .167188 1
GRID     5       1       3.75292 44.7047 .138569 1
GRID     6       1       3.38686 43.0039 .112826 1
GRID     7       1       3.38686 16.9961 .112826 1
GRID     8       1       3.75292 15.2953 .138569 1
GRID     9       1       4.1217  13.8979 .167188 1
GRID     10      1       4.24321 8.94828 .177207 1
GRID     11      1       4.3945  4.30662 .190093 1
GRID     12      1       4.57261 0.      .205848 1
GRID     13      1       4.3945  42.5198 .190093 1
GRID     14      1       4.68244 39.367  .215876 1
GRID     15      1       4.98289 36.5868 .244537 1
GRID     16      1       4.95367 32.2042 .241671 1
GRID     17      1       4.95367 27.7958 .241671 1
GRID     18      1       4.98289 23.4132 .244537 1
GRID     19      1       4.68244 20.633  .215876 1
GRID     20      1       4.3945  17.4802 .190093 1
GRID     21      1       6.13244 44.3916 .370843 1
GRID     22      1       6.049   40.8934 .360784 1
GRID     23      1       5.69031 39.6374 .319134 1
GRID     24      1       5.33472 38.2132 .280387 1
GRID     25      1       5.33472 21.7868 .280387 1
GRID     26      1       5.69031 20.3626 .319134 1
GRID     27      1       6.049   19.1066 .360784 1
GRID     28      1       6.13244 15.6084 .370843 1
GRID     29      1       6.23808 12.2164 .383777 1
GRID     30      1       6.36481 8.94828 .399592 1
GRID     31      1       6.13244 6.17839 .370843 1
GRID     32      1       5.91551 3.19794 .344981 1
GRID     33      1       5.71577 0.      .322004 1
GRID     34      1       5.33472 0.      .280387 1
GRID     35      1       4.95367 0.      .241671 1
GRID     36      1       6.34196 38.6391 .396717 1
GRID     37      1       6.64385 36.5868 .435552 1
GRID     38      1       6.95353 34.715  .477299 1
GRID     39      1       6.93262 31.5748 .474417 1
GRID     40      1       6.93262 28.4252 .474417 1
GRID     41      1       6.95353 25.285  .477299 1
GRID     42      1       6.64386 23.4132 .435552 1
GRID     43      1       6.34196 21.3609 .396717 1
GRID     44      1       7.98391 48.073  .630182 1
GRID     45      1       8.2434  46.1021 .67209  1
GRID     46      1       8.14594 43.5262 .65619  1
GRID     47      1       8.06533 40.8934 .643186 1
GRID     48      1       8.00207 38.2132 .63307  1
GRID     49      1       7.64955 37.1538 .578207 1
GRID     50      1       7.29989 35.9926 .526286 1
GRID     51      1       9.54912 56.0368 .903939 1
GRID     52      1       9.76711 54.1825 .946074 1
GRID     53      1       9.6173  52.1111 .917009 1
GRID     54      1       9.48044 49.9771 .890868 1
GRID     55      1       9.35712 47.7837 .86764  1
GRID     56      1       8.98506 47.2695 .799473 1
GRID     57      1       8.61378 46.7109 .734294 1
GRID     58      1       10.5256 54.603  1.1004  1
GRID     59      1       10.1463 54.4006 1.02172 1
GRID     60      1       6.74148 8.44454 .448504 1
GRID     61      1       7.11862 7.99414 .500346 1
GRID     62      1       7.49616 7.58909 .555124 1
GRID     63      1       7.64955 4.94961 .578207 1
GRID     64      1       7.81852 2.41903 .604187 1
GRID     65      1       8.00207 0.      .63307  1
GRID     66      1       7.29989 24.0075 .526286 1
GRID     67      1       7.64955 22.8462 .578207 1
GRID     68      1       8.00207 21.7868 .633073 1
GRID     69      1       8.06533 19.1066 .643183 1
GRID     70      1       8.14594 16.4738 .65619  1
GRID     71      1       8.2434  13.8979 .67209  1
GRID     72      1       7.98391 11.927  .630182 1
GRID     73      1       7.73449 9.82643 .591196 1
GRID     74      1       8.30482 36.5868 .682212 1
GRID     75      1       8.61378 35.0759 .734294 1
GRID     76      1       8.92831 33.6705 .789329 1
GRID     77      1       8.91204 31.225  .78643  1
GRID     78      1       8.91204 28.775  .78643  1
GRID     79      1       8.92831 26.3295 .789329 1
GRID     80      1       8.61378 24.9241 .734294 1
GRID     81      1       8.30482 23.4132 .682209 1
GRID     82      1       9.6173  46.1021 .917012 1
GRID     83      1       9.88532 44.5105 .969339 1
GRID     84      1       10.1606 43.0039 1.02463 1
GRID     85      1       10.0817 40.8934 1.00862 1
GRID     86      1       10.0167 38.7525 .995523 1
GRID     87      1       9.96578 36.5868 .985337 1
GRID     88      1       9.6173  35.6847 .917009 1
GRID     89      1       9.27138 34.715  .851678 1
GRID     90      1       10.5256 43.6102 1.1004  1
GRID     91      1       8.61378 13.2891 .734294 1
GRID     92      1       8.98505 12.7305 .799473 1
GRID     93      1       9.35712 12.2164 .86764  1
GRID     94      1       9.48044 10.0229 .890865 1
GRID     95      1       9.6173  7.8889  .917009 1
GRID     96      1       9.76711 5.81753 .946074 1
GRID     97      1       9.54912 3.96324 .903936 1
GRID     98      1       9.34158 2.02445 .864737 1
GRID     99      1       9.14523 0.      .828471 1
GRID     100     1       8.76418 0.      .760355 1
GRID     101     1       8.38313 0.      .695228 1
GRID     102     1       9.27138 25.285  .851678 1
GRID     103     1       9.6173  24.3153 .917012 1
GRID     104     1       9.96578 23.4132 .985337 1
GRID     105     1       10.0167 21.2475 .995523 1
GRID     106     1       10.0817 19.1066 1.00862 1
GRID     107     1       10.1606 16.9961 1.02463 1
GRID     108     1       9.88532 15.4896 .969339 1
GRID     109     1       9.6173  13.8979 .917009 1
GRID     110     1       10.2743 35.3201 1.04793 1
GRID     111     1       10.5875 34.1278 1.11352 1
GRID     112     1       10.5875 25.8722 1.11352 1
GRID     113     1       10.2743 24.6799 1.04793 1
GRID     114     1       10.1463 5.59942 1.02173 1
GRID     115     1       10.5256 5.39703 1.1004  1
GRID     116     1       10.5256 16.3898 1.10041 1
GRID     117     1       2.925   40.     .084128 1
GRID     118     1       2.925   20.     .084128 1
GRID     119     1       2.925   6.6668  .084128 1
GRID     120     1       2.925   0.      .084128 1
GRID     121     1       2.925   13.3336 .084128 1
GRID     122     1       2.925   26.6668 .084128 1
GRID     123     1       2.925   33.3336 .084128 1
GRID     124     1       2.925   46.6668 .084128 1
GRID     125     1       2.925   53.3336 .084131 1
GRID     126     1       2.925   60.     .084128 1
GRID     127     1       10.845  54.7624 1.169   1
GRID     128     1       10.845  44.106  1.169   1
GRID     129     1       10.845  33.2106 1.169   1
GRID     130     1       10.845  26.7894 1.169   1
GRID     131     1       10.845  15.894  1.169   1
GRID     132     1       10.845  5.23762 1.16899 1
GRID     133     1       10.845  58.0359 1.169   1
GRID     134     1       10.845  60.     1.169   1
GRID     135     1       10.845  56.5083 1.169   1
GRID     136     1       10.845  52.9863 1.169   1
GRID     137     1       10.845  51.2103 1.169   1
GRID     138     1       10.845  49.4342 1.169   1
GRID     139     1       10.845  47.6581 1.169   1
GRID     140     1       10.845  45.882  1.169   1
GRID     141     1       10.845  42.2901 1.169   1
GRID     142     1       10.845  40.4742 1.169   1
GRID     143     1       10.845  38.6583 1.169   1
GRID     144     1       10.845  36.8424 1.169   1
GRID     145     1       10.845  35.0265 1.169   1
GRID     146     1       10.845  31.0001 1.169   1
GRID     147     1       10.845  29.     1.169   1
GRID     148     1       10.845  24.9735 1.169   1
GRID     149     1       10.845  23.1576 1.169   1
GRID     150     1       10.845  21.3417 1.16899 1
GRID     151     1       10.845  19.5258 1.169   1
GRID     152     1       10.845  17.7099 1.16899 1
GRID     153     1       10.845  14.118  1.16899 1
GRID     154     1       10.845  12.3419 1.16901 1
GRID     155     1       10.845  10.5658 1.16899 1
GRID     156     1       10.845  8.78974 1.16899 1
GRID     157     1       10.845  7.01367 1.16899 1
GRID     158     1       10.845  3.49174 1.16901 1
GRID     159     1       10.845  1.96409 1.16899 1
GRID     160     1       10.845  1.162-6 1.169   1
GRID     161     1       3.42946 60.     .115686 1
GRID     162     1       3.635   54.7913 .129988 1
GRID     163     1       3.86725 50.1736 .147154 1
GRID     164     1       4.01462 55.285  .158601 1
GRID     165     1       3.81051 60.     .142861 1
GRID     166     1       4.19156 60.     .172912 1
GRID     167     1       3.2557  54.1825 .104248 1
GRID     168     1       3.11904 47.7837 .095673 1
GRID     169     1       3.49239 49.1066 .119975 1
GRID     170     1       4.95367 60.     .241671 1
GRID     171     1       3.42946 0.      .115686 1
GRID     172     1       3.81051 0.      .142861 1
GRID     173     1       4.19156 0.      .172912 1
GRID     174     1       4.01462 4.715   .158601 1
GRID     175     1       3.635   5.20872 .129988 1
GRID     176     1       3.86725 9.82643 .147154 1
GRID     177     1       3.49239 10.8934 .119975 1
GRID     178     1       3.2557  5.81753 .104248 1
GRID     179     1       3.11904 12.2164 .095673 1
GRID     180     1       3.96    30.     .154306 1
GRID     181     1       4.29423 27.4571 .181502 1
GRID     182     1       4.63569 25.285  .211577 1
GRID     183     1       4.62    30.     .210146 1
GRID     184     1       4.29423 32.5429 .181502 1
GRID     185     1       4.63569 34.715  .211577 1
GRID     186     1       4.32791 37.5891 .184366 1
GRID     187     1       3.97829 35.4964 .155738 1
GRID     188     1       4.03267 40.8934 .160033 1
GRID     189     1       3.67472 38.9483 .132849 1
GRID     190     1       3.635   33.0045 .129988 1
GRID     191     1       3.32193 36.5868 .108537 1
GRID     192     1       3.3     30.     .107108 1
GRID     193     1       3.635   26.9955 .129988 1
GRID     194     1       3.32193 23.4132 .108537 1
GRID     195     1       3.67472 21.0517 .132849 1
GRID     196     1       3.97829 24.5036 .155738 1
GRID     197     1       4.03267 19.1066 .160033 1
GRID     198     1       4.32791 22.4109 .184366 1
GRID     199     1       5.23859 49.1066 .270347 1
GRID     200     1       5.4956  46.1021 .297604 1
GRID     201     1       5.76635 43.3728 .327749 1
GRID     202     1       5.86621 46.9961 .339236 1
GRID     203     1       5.61323 49.8417 .31052  1
GRID     204     1       5.37539 52.9473 .284692 1
GRID     205     1       5.15477 56.3295 .261742 1
GRID     206     1       4.99744 52.4109 .245972 1
GRID     207     1       4.77456 56.0368 .224472 1
GRID     208     1       4.62    51.7868 .210146 1
GRID     209     1       4.86494 48.2585 .233071 1
GRID     210     1       4.49253 47.2695 .198686 1
GRID     211     1       4.75933 43.8979 .22304  1
GRID     212     1       5.12652 45.0791 .258875 1
GRID     213     1       5.04083 40.8934 .25027  1
GRID     214     1       5.40233 42.2164 .287561 1
GRID     215     1       5.23859 10.8934 .270347 1
GRID     216     1       5.61323 10.1583 .31052  1
GRID     217     1       5.98869 9.51534 .353599 1
GRID     218     1       5.86621 13.0039 .339236 1
GRID     219     1       5.4956  13.8979 .297604 1
GRID     220     1       5.76635 16.6272 .327749 1
GRID     221     1       5.40233 17.7837 .287561 1
GRID     222     1       5.12652 14.9209 .258875 1
GRID     223     1       5.04083 19.1066 .250273 1
GRID     224     1       4.75933 16.1021 .22304  1
GRID     225     1       4.86494 11.7415 .233071 1
GRID     226     1       4.49253 12.7305 .198686 1
GRID     227     1       4.62    8.21321 .210146 1
GRID     228     1       4.99744 7.58909 .245972 1
GRID     229     1       4.77456 3.96324 .224472 1
GRID     230     1       5.15477 3.6705  .261742 1
GRID     231     1       5.37539 7.05268 .284692 1
GRID     232     1       5.53509 3.41798 .301909 1
GRID     233     1       5.75375 6.58678 .326311 1
GRID     234     1       5.94    30.     .347854 1
GRID     235     1       6.27289 28.2595 .38809  1
GRID     236     1       6.61099 26.6957 .431235 1
GRID     237     1       6.6     30.     .429798 1
GRID     238     1       6.27289 31.7405 .38809  1
GRID     239     1       6.61099 33.3043 .431235 1
GRID     240     1       6.296   35.2087 .390966 1
GRID     241     1       5.95221 33.6705 .349291 1
GRID     242     1       5.98869 37.3111 .353602 1
GRID     243     1       5.63904 35.8175 .313393 1
GRID     244     1       5.61324 31.9451 .31052  1
GRID     245     1       5.29373 34.1278 .276083 1
GRID     246     1       5.28    30.     .274648 1
GRID     247     1       5.61323 28.0549 .310523 1
GRID     248     1       5.29373 25.8722 .276083 1
GRID     249     1       5.63904 24.1825 .313393 1
GRID     250     1       5.95221 26.3295 .349291 1
GRID     251     1       5.98869 22.6889 .353599 1
GRID     252     1       6.296   24.7913 .390966 1
GRID     253     1       7.41827 41.8568 .543588 1
GRID     254     1       7.70628 39.966  .586867 1
GRID     255     1       7.78129 42.7305 .598415 1
GRID     256     1       7.50584 44.7047 .556568 1
GRID     257     1       7.87403 45.4361 .61285  1
GRID     258     1       6.41027 42.0083 .405343 1
GRID     259     1       6.69827 39.8264 .442747 1
GRID     260     1       7.05717 40.8934 .491701 1
GRID     261     1       6.99517 37.8271 .483059 1
GRID     262     1       7.34945 38.9483 .533493 1
GRID     263     1       8.86303 51.4349 .777736 1
GRID     264     1       9.10545 49.5598 .821218 1
GRID     265     1       9.24    51.7868 .845876 1
GRID     266     1       9.00926 53.6912 .803822 1
GRID     267     1       9.3881  53.9468 .873445 1
GRID     268     1       8.48641 51.0517 .712587 1
GRID     269     1       8.35711 48.6129 .690887 1
GRID     270     1       8.73098 49.1066 .754562 1
GRID     271     1       10.4841 58.1962 1.09165 1
GRID     272     1       10.5735 56.4233 1.11055 1
GRID     273     1       10.1033 58.1282 1.01299 1
GRID     274     1       9.92929 56.1887 .978063 1
GRID     275     1       10.3095 56.3295 1.05522 1
GRID     276     1       6.85892 0.      .464338 1
GRID     277     1       7.23997 0.      .517638 1
GRID     278     1       7.62102 0.      .573879 1
GRID     279     1       7.43782 2.54292 .546473 1
GRID     280     1       7.05717 2.68018 .491701 1
GRID     281     1       7.26999 5.20872 .521961 1
GRID     282     1       6.8906  5.49637 .468657 1
GRID     283     1       6.67656 2.8331  .439871 1
GRID     284     1       6.51141 5.81753 .418289 1
GRID     285     1       6.296   3.00449 .390966 1
GRID     286     1       6.47787-6.472-8 .413973 1
GRID     287     1       6.09682 1.425-7 .366533 1
GRID     288     1       7.13899 16.1021 .503227 1
GRID     289     1       7.50584 15.2953 .556568 1
GRID     290     1       7.87403 14.5639 .61285  1
GRID     291     1       7.78129 17.2695 .598415 1
GRID     292     1       7.41827 18.1432 .543588 1
GRID     293     1       7.70628 20.034  .586867 1
GRID     294     1       7.34945 21.0517 .533493 1
GRID     295     1       7.05717 19.1066 .491701 1
GRID     296     1       6.99517 22.1729 .483059 1
GRID     297     1       6.69827 20.1736 .442747 1
GRID     298     1       6.77371 16.9961 .452823 1
GRID     299     1       6.41027 17.9917 .405343 1
GRID     300     1       6.50025 14.7047 .416849 1
GRID     301     1       6.8695  13.8979 .465778 1
GRID     302     1       6.61099 11.5175 .431235 1
GRID     303     1       6.98478 10.8934 .481618 1
GRID     304     1       7.23997 13.1736 .517638 1
GRID     305     1       7.35932 10.3327 .534934 1
GRID     306     1       7.61149 12.5198 .572435 1
GRID     307     1       7.92    30.     .620072 1
GRID     308     1       8.2522  28.6771 .673537 1
GRID     309     1       8.58846 27.4571 .72995  1
GRID     310     1       8.58    30.     .728503 1
GRID     311     1       8.2522  31.323  .673537 1
GRID     312     1       8.58846 32.5429 .72995  1
GRID     313     1       8.26978 33.9632 .676428 1
GRID     314     1       7.92916 32.7545 .621516 1
GRID     315     1       7.95658 35.4964 .625848 1
GRID     316     1       7.61149 34.3066 .572435 1
GRID     317     1       7.59239 31.438  .56955  1
GRID     318     1       7.26999 33.0045 .521961 1
GRID     319     1       7.26    30.     .52052  1
GRID     320     1       7.59239 28.5621 .56955  1
GRID     321     1       7.26999 26.9955 .521961 1
GRID     322     1       7.61149 25.6934 .572435 1
GRID     323     1       7.92916 27.2455 .621516 1
GRID     324     1       7.95658 24.5036 .625848 1
GRID     325     1       8.26978 26.0368 .676428 1
GRID     326     1       9.0735  40.8934 .815419 1
GRID     327     1       9.36487 39.367  .869093 1
GRID     328     1       9.66248 37.9337 .925727 1
GRID     329     1       9.72241 40.1583 .937353 1
GRID     330     1       9.43438 41.6509 .882157 1
GRID     331     1       9.7968  42.3525 .951889 1
GRID     332     1       9.51866 43.8979 .898127 1
GRID     333     1       9.15316 43.2363 .829921 1
GRID     334     1       9.24785 45.5351 .847326 1
GRID     335     1       8.87939 44.9209 .780633 1
GRID     336     1       8.78899 42.5198 .764699 1
GRID     337     1       8.51204 44.2536 .716928 1
GRID     338     1       8.42632 41.7415 .702459 1
GRID     339     1       8.71433 40.0733 .751668 1
GRID     340     1       8.35711 39.1829 .690887 1
GRID     341     1       8.65582 37.5891 .741531 1
GRID     342     1       9.00926 38.513  .803822 1
GRID     343     1       8.96078 36.1027 .795126 1
GRID     344     1       9.31045 37.0527 .858934 1
GRID     345     1       10.4772 49.1066 1.09019 1
GRID     346     1       10.608  51.0517 1.1179  1
GRID     347     1       10.3727 52.6889 1.06833 1
GRID     348     1       10.2318 50.7198 1.03919 1
GRID     349     1       9.99488 52.4109 .991158 1
GRID     350     1       9.8559  50.3626 .963522 1
GRID     351     1       10.1033 48.6982 1.01299 1
GRID     352     1       9.72987 48.2585 .938806 1
GRID     353     1       9.98761 46.6272 .989702 1
GRID     354     1       10.3587 47.1147 1.06542 1
GRID     355     1       10.253  45.0791 1.04356 1
GRID     356     1       10.6217 45.6084 1.12082 1
GRID     357     1       8.63062 6.58678 .737187 1
GRID     358     1       9.00926 6.3088  .803822 1
GRID     359     1       9.3881  6.05325 .873445 1
GRID     360     1       9.24    8.21321 .845876 1
GRID     361     1       8.86303 8.56512 .777739 1
GRID     362     1       9.10545 10.4403 .821218 1
GRID     363     1       8.73098 10.8934 .754562 1
GRID     364     1       8.48641 8.94828 .712587 1
GRID     365     1       8.3571  11.3871 .690887 1
GRID     366     1       8.11022 9.367   .650408 1
GRID     367     1       8.2522  6.89026 .673537 1
GRID     368     1       7.87403 7.2229  .61285  1
GRID     369     1       8.02925 4.715   .637404 1
GRID     370     1       8.40907 4.50159 .699566 1
GRID     371     1       8.19924 2.30664 .664862 1
GRID     372     1       8.58    2.20423 .728503 1
GRID     373     1       8.78899 4.30662 .764699 1
GRID     374     1       8.96078 2.11052 .795126 1
GRID     375     1       9.16901 4.12781 .832821 1
GRID     376     1       9.0735  19.1066 .815419 1
GRID     377     1       9.43438 18.3491 .882154 1
GRID     378     1       9.7968  17.6475 .951889 1
GRID     379     1       9.72241 19.8417 .937353 1
GRID     380     1       9.36487 20.633  .869093 1
GRID     381     1       9.66248 22.0663 .925727 1
GRID     382     1       9.31045 22.9473 .858931 1
GRID     383     1       9.00926 21.487  .803822 1
GRID     384     1       8.96078 23.8973 .795126 1
GRID     385     1       8.65582 22.4109 .741531 1
GRID     386     1       8.71433 19.9267 .751665 1
GRID     387     1       8.35711 20.8171 .690887 1
GRID     388     1       8.42632 18.2585 .702459 1
GRID     389     1       8.78899 17.4802 .764702 1
GRID     390     1       8.51204 15.7464 .716928 1
GRID     391     1       8.87939 15.0791 .780636 1
GRID     392     1       9.15316 16.7637 .829921 1
GRID     393     1       9.24785 14.465  .847326 1
GRID     394     1       9.51866 16.1021 .898127 1
GRID     395     1       9.9     30.     .972245 1
GRID     396     1       10.2318 28.933  1.03919 1
GRID     397     1       10.5669 27.9334 1.10915 1
GRID     398     1       10.56   30.     1.10769 1
GRID     399     1       10.2318 31.067  1.03919 1
GRID     400     1       10.5669 32.0666 1.10915 1
GRID     401     1       10.246  33.1979 1.04211 1
GRID     402     1       9.90733 32.2042 .973701 1
GRID     403     1       9.92929 34.402  .978066 1
GRID     404     1       9.58705 33.418  .911197 1
GRID     405     1       9.5719  31.1405 .908295 1
GRID     406     1       9.24785 32.3615 .847326 1
GRID     407     1       9.24    30.     .845873 1
GRID     408     1       9.5719  28.8595 .908295 1
GRID     409     1       9.24785 27.6385 .847326 1
GRID     410     1       9.58705 26.582  .911201 1
GRID     411     1       9.90733 27.7958 .973701 1
GRID     412     1       9.92929 25.5981 .978063 1
GRID     413     1       10.246  26.8021 1.04211 1
GRID     414     1       10.4425 41.5778 1.0829  1
GRID     415     1       10.3727 39.5153 1.06833 1
GRID     416     1       10.6694 38.2132 1.13103 1
GRID     417     1       10.3166 37.4277 1.05667 1
GRID     418     1       10.6217 36.1784 1.12082 1
GRID     419     1       10.2884 1.102-5 1.05085 1
GRID     420     1       10.4841 1.80376 1.09165 1
GRID     421     1       10.5735 3.5767  1.11055 1
GRID     422     1       9.90733 1.128-5 .973701 1
GRID     423     1       9.52628 1.156-5 .89958  1
GRID     424     1       9.72241 1.94513 .937353 1
GRID     425     1       10.1033 1.87178 1.01299 1
GRID     426     1       9.92929 3.81127 .978063 1
GRID     427     1       10.3095 3.67051 1.05522 1
GRID     428     1       10.4772 10.8934 1.09019 1
GRID     429     1       10.608  8.94829 1.1179  1
GRID     430     1       10.3727 7.31112 1.06833 1
GRID     431     1       10.2318 9.28019 1.0392  1
GRID     432     1       9.99488 7.5891  .991158 1
GRID     433     1       9.8559  9.63742 .963522 1
GRID     434     1       10.1033 11.3018 1.01299 1
GRID     435     1       9.72987 11.7415 .938806 1
GRID     436     1       9.98761 13.3728 .989702 1
GRID     437     1       10.3587 12.8854 1.06543 1
GRID     438     1       10.253  14.9209 1.04356 1
GRID     439     1       10.6217 14.3916 1.12082 1
GRID     440     1       10.4425 18.4222 1.0829  1
GRID     441     1       10.3727 20.4847 1.06833 1
GRID     442     1       10.6694 21.7868 1.13103 1
GRID     443     1       10.3166 22.5723 1.05667 1
GRID     444     1       10.6217 23.8216 1.12082 1
GRID     445     1       11.     1.146-6 1.20306 1
GRID     446     1       11.     1.96409 1.20305 1
GRID     447     1       11.     58.0359 1.20306 1
GRID     448     1       11.     60.     1.20306 1
GRID     449     1       11.     56.5083 1.20306 1
GRID     450     1       11.     54.7624 1.20306 1
GRID     451     1       11.     52.9863 1.20306 1
GRID     452     1       11.     51.2103 1.20306 1
GRID     453     1       11.     49.4342 1.20306 1
GRID     454     1       11.     47.6581 1.20306 1
GRID     455     1       11.     45.882  1.20306 1
GRID     456     1       11.     44.106  1.20306 1
GRID     457     1       11.     42.2901 1.20306 1
GRID     458     1       11.     40.4742 1.20306 1
GRID     459     1       11.     38.6583 1.20306 1
GRID     460     1       11.     36.8424 1.20306 1
GRID     461     1       11.     35.0265 1.20306 1
GRID     462     1       11.     33.2106 1.20306 1
GRID     463     1       11.     31.0001 1.20306 1
GRID     464     1       11.     29.     1.20306 1
GRID     465     1       11.     26.7894 1.20306 1
GRID     466     1       11.     24.9735 1.20306 1
GRID     467     1       11.     23.1576 1.20306 1
GRID     468     1       11.     21.3417 1.20306 1
GRID     469     1       11.     19.5258 1.20306 1
GRID     470     1       11.     17.7099 1.20306 1
GRID     471     1       11.     15.894  1.20307 1
GRID     472     1       11.     14.118  1.20307 1
GRID     473     1       11.     12.3419 1.20306 1
GRID     474     1       11.     10.5658 1.20306 1
GRID     475     1       11.     8.78974 1.20306 1
GRID     476     1       11.     7.01367 1.20306 1
GRID     477     1       11.     5.23762 1.20307 1
GRID     478     1       11.     3.49174 1.20306 1
GRID     479     1       4.57261 120.    .205848 1
GRID     480     1       4.3945  115.693 .190093 1
GRID     481     1       4.24321 111.052 .177207 1
GRID     482     1       4.1217  106.102 .167188 1
GRID     483     1       3.75292 104.705 .138569 1
GRID     484     1       3.38686 103.004 .112826 1
GRID     485     1       5.71577 120.    .322004 1
GRID     486     1       3.38686 76.9961 .112826 1
GRID     487     1       3.75292 75.2953 .138569 1
GRID     488     1       4.1217  73.8979 .167188 1
GRID     489     1       4.24321 68.9483 .177207 1
GRID     490     1       4.3945  64.3066 .190093 1
GRID     491     1       4.3945  102.52  .190093 1
GRID     492     1       4.68244 99.367  .215876 1
GRID     493     1       4.98289 96.5868 .244537 1
GRID     494     1       4.95367 92.2042 .241671 1
GRID     495     1       4.95367 87.7958 .241671 1
GRID     496     1       4.3945  77.4802 .190093 1
GRID     497     1       5.9155  116.802 .344981 1
GRID     498     1       6.13244 113.822 .370843 1
GRID     499     1       6.36481 111.052 .399592 1
GRID     500     1       6.23808 107.784 .383777 1
GRID     501     1       6.13244 104.392 .370843 1
GRID     502     1       6.049   100.893 .360784 1
GRID     503     1       5.69031 99.6374 .319134 1
GRID     504     1       5.33472 98.2132 .280387 1
GRID     505     1       8.00207 120.    .633073 1
GRID     506     1       7.81852 117.581 .604187 1
GRID     507     1       7.64955 115.05  .578207 1
GRID     508     1       7.49616 112.411 .555124 1
GRID     509     1       7.11862 112.006 .500346 1
GRID     510     1       6.74148 111.556 .448504 1
GRID     511     1       9.14523 120.    .828468 1
GRID     512     1       6.34196 98.6391 .396717 1
GRID     513     1       6.64385 96.5868 .435552 1
GRID     514     1       6.95353 94.715  .477299 1
GRID     515     1       6.93262 91.5748 .474417 1
GRID     516     1       6.93262 88.4252 .474417 1
GRID     517     1       7.73449 110.174 .591196 1
GRID     518     1       7.98391 108.073 .630182 1
GRID     519     1       8.2434  106.102 .67209  1
GRID     520     1       8.14594 103.526 .65619  1
GRID     521     1       8.06533 100.893 .643183 1
GRID     522     1       8.00207 98.2132 .63307  1
GRID     523     1       7.64955 97.1538 .578207 1
GRID     524     1       7.29989 95.9926 .526286 1
GRID     525     1       9.34158 117.976 .864737 1
GRID     526     1       9.54912 116.037 .903936 1
GRID     527     1       9.76711 114.183 .946074 1
GRID     528     1       9.6173  112.111 .917009 1
GRID     529     1       9.48044 109.977 .890865 1
GRID     530     1       9.35712 107.784 .86764  1
GRID     531     1       8.98505 107.27  .799473 1
GRID     532     1       8.61378 106.711 .734294 1
GRID     533     1       10.5256 114.603 1.1004  1
GRID     534     1       10.1463 114.401 1.02172 1
GRID     535     1       8.30482 96.5868 .682212 1
GRID     536     1       8.61378 95.0759 .734294 1
GRID     537     1       8.92831 93.6705 .789329 1
GRID     538     1       8.91204 91.225  .78643  1
GRID     539     1       8.91204 88.775  .78643  1
GRID     540     1       9.6173  106.102 .917009 1
GRID     541     1       9.88532 104.511 .969339 1
GRID     542     1       10.1606 103.004 1.02463 1
GRID     543     1       10.0817 100.893 1.00862 1
GRID     544     1       10.0167 98.7525 .995523 1
GRID     545     1       9.96578 96.5868 .985337 1
GRID     546     1       9.6173  95.6847 .917009 1
GRID     547     1       9.27138 94.715  .851678 1
GRID     548     1       10.5256 103.61  1.1004  1
GRID     549     1       9.96578 83.4132 .985337 1
GRID     550     1       10.0167 81.2475 .995523 1
GRID     551     1       10.0817 79.1066 1.00862 1
GRID     552     1       10.1606 76.9961 1.02463 1
GRID     553     1       10.2743 95.3201 1.04793 1
GRID     554     1       10.5875 94.1278 1.11352 1
GRID     555     1       10.5875 85.8722 1.11352 1
GRID     556     1       10.2743 84.6799 1.04793 1
GRID     557     1       10.5256 76.3898 1.1004  1
GRID     558     1       2.925   100.    .084128 1
GRID     559     1       2.925   80.     .084128 1
GRID     560     1       2.925   66.6668 .084128 1
GRID     561     1       2.925   73.3336 .084128 1
GRID     562     1       2.925   86.6668 .084128 1
GRID     563     1       2.925   93.3336 .084128 1
GRID     564     1       2.925   106.667 .084131 1
GRID     565     1       2.925   113.334 .084131 1
GRID     566     1       2.925   120.    .084128 1
GRID     567     1       10.845  114.762 1.169   1
GRID     568     1       10.845  104.106 1.169   1
GRID     569     1       10.845  93.2106 1.169   1
GRID     570     1       10.845  86.7894 1.169   1
GRID     571     1       10.845  75.894  1.169   1
GRID     572     1       10.845  65.2376 1.169   1
GRID     573     1       10.845  118.036 1.169   1
GRID     574     1       10.845  120.    1.169   1
GRID     575     1       10.845  116.508 1.169   1
GRID     576     1       10.845  112.986 1.169   1
GRID     577     1       10.845  111.21  1.16899 1
GRID     578     1       10.845  109.434 1.169   1
GRID     579     1       10.845  107.658 1.16899 1
GRID     580     1       10.845  105.882 1.16899 1
GRID     581     1       10.845  102.29  1.16901 1
GRID     582     1       10.845  100.474 1.169   1
GRID     583     1       10.845  98.6583 1.169   1
GRID     584     1       10.845  96.8424 1.16901 1
GRID     585     1       10.845  95.0265 1.169   1
GRID     586     1       10.845  91.0001 1.16899 1
GRID     587     1       10.845  89.     1.16899 1
GRID     588     1       10.845  84.9735 1.169   1
GRID     589     1       10.845  83.1576 1.16901 1
GRID     590     1       10.845  81.3417 1.169   1
GRID     591     1       10.845  79.5258 1.169   1
GRID     592     1       10.845  77.7099 1.16901 1
GRID     593     1       10.845  74.118  1.16899 1
GRID     594     1       10.845  72.3419 1.16899 1
GRID     595     1       10.845  70.5658 1.169   1
GRID     596     1       10.845  68.7897 1.16899 1
GRID     597     1       10.845  67.0137 1.169   1
GRID     598     1       10.845  61.9641 1.169   1
GRID     599     1       3.42946 120.    .115686 1
GRID     600     1       3.635   114.791 .129988 1
GRID     601     1       3.86725 110.174 .147154 1
GRID     602     1       4.01462 115.285 .158601 1
GRID     603     1       3.81051 120.    .142861 1
GRID     604     1       4.19156 120.    .172912 1
GRID     605     1       3.2557  114.183 .104248 1
GRID     606     1       3.11904 107.784 .095673 1
GRID     607     1       3.49239 109.107 .119975 1
GRID     608     1       4.95367 120.    .241671 1
GRID     609     1       5.33472 120.    .280387 1
GRID     610     1       4.01462 64.715  .158601 1
GRID     611     1       3.635   65.2087 .129988 1
GRID     612     1       3.86725 69.8264 .147154 1
GRID     613     1       3.49239 70.8934 .119975 1
GRID     614     1       3.2557  65.8175 .104248 1
GRID     615     1       3.11904 72.2164 .095673 1
GRID     616     1       3.96    90.     .154306 1
GRID     617     1       4.29423 87.4571 .181502 1
GRID     618     1       4.63569 85.285  .211577 1
GRID     619     1       4.62    90.     .210146 1
GRID     620     1       4.29423 92.5429 .181502 1
GRID     621     1       4.63569 94.715  .211577 1
GRID     622     1       4.32791 97.5891 .184366 1
GRID     623     1       3.97829 95.4964 .155738 1
GRID     624     1       4.03267 100.893 .160033 1
GRID     625     1       3.67472 98.9483 .132849 1
GRID     626     1       3.635   93.0045 .129988 1
GRID     627     1       3.32193 96.5868 .108537 1
GRID     628     1       3.3     90.     .107108 1
GRID     629     1       3.635   86.9955 .129988 1
GRID     630     1       3.32193 83.4132 .108537 1
GRID     631     1       3.67472 81.0517 .132849 1
GRID     632     1       3.97829 84.5036 .155738 1
GRID     633     1       4.03267 79.1066 .160033 1
GRID     634     1       4.32791 82.4109 .184366 1
GRID     635     1       5.23859 109.107 .270347 1
GRID     636     1       5.4956  106.102 .297604 1
GRID     637     1       5.76635 103.373 .327749 1
GRID     638     1       5.86621 106.996 .339236 1
GRID     639     1       5.61323 109.842 .31052  1
GRID     640     1       5.98869 110.485 .353602 1
GRID     641     1       5.75375 113.413 .326311 1
GRID     642     1       5.37539 112.947 .284692 1
GRID     643     1       5.53509 116.582 .301909 1
GRID     644     1       5.15477 116.33  .261742 1
GRID     645     1       4.99744 112.411 .245972 1
GRID     646     1       4.77456 116.037 .224472 1
GRID     647     1       4.62    111.787 .210146 1
GRID     648     1       4.86494 108.259 .233071 1
GRID     649     1       4.49253 107.27  .198686 1
GRID     650     1       4.75933 103.898 .22304  1
GRID     651     1       5.12652 105.079 .258875 1
GRID     652     1       5.04083 100.893 .250273 1
GRID     653     1       5.40233 102.216 .287561 1
GRID     654     1       6.85892 120.    .464338 1
GRID     655     1       7.05717 117.32  .491701 1
GRID     656     1       7.26999 114.791 .521961 1
GRID     657     1       7.43782 117.457 .54647  1
GRID     658     1       7.23997 120.    .517638 1
GRID     659     1       7.62102 120.    .573879 1
GRID     660     1       6.47787 120.    .413973 1
GRID     661     1       6.09682 120.    .366533 1
GRID     662     1       6.296   116.996 .390966 1
GRID     663     1       6.67656 117.167 .439868 1
GRID     664     1       6.51141 114.183 .418289 1
GRID     665     1       6.8906  114.504 .468657 1
GRID     666     1       8.38313 120.    .695225 1
GRID     667     1       8.76418 120.    .760355 1
GRID     668     1       4.49253 72.7305 .198686 1
GRID     669     1       4.62    68.2132 .210146 1
GRID     670     1       4.77456 63.9632 .224472 1
GRID     671     1       5.94    90.     .347854 1
GRID     672     1       6.27289 88.2595 .38809  1
GRID     673     1       6.61099 86.6957 .431235 1
GRID     674     1       6.6     90.     .429798 1
GRID     675     1       6.27289 91.7405 .38809  1
GRID     676     1       6.61099 93.3043 .431235 1
GRID     677     1       6.296   95.2087 .390966 1
GRID     678     1       5.95221 93.6705 .349291 1
GRID     679     1       5.98869 97.3111 .353602 1
GRID     680     1       5.63904 95.8175 .313393 1
GRID     681     1       5.61324 91.9451 .31052  1
GRID     682     1       5.29373 94.1278 .276083 1
GRID     683     1       5.28    90.     .274648 1
GRID     684     1       5.61323 88.0549 .31052  1
GRID     685     1       5.29373 85.8722 .276083 1
GRID     686     1       5.95221 86.3295 .349291 1
GRID     687     1       7.13899 103.898 .503227 1
GRID     688     1       7.41827 101.857 .543588 1
GRID     689     1       7.70628 99.966  .586867 1
GRID     690     1       7.78129 102.731 .598415 1
GRID     691     1       7.50584 104.705 .556568 1
GRID     692     1       7.87403 105.436 .61285  1
GRID     693     1       7.61149 107.48  .572435 1
GRID     694     1       7.23997 106.826 .517638 1
GRID     695     1       7.35932 109.667 .534934 1
GRID     696     1       6.98478 109.107 .481618 1
GRID     697     1       6.8695  106.102 .465778 1
GRID     698     1       6.61099 108.483 .431235 1
GRID     699     1       6.50025 105.295 .416849 1
GRID     700     1       6.77371 103.004 .452823 1
GRID     701     1       6.41027 102.008 .405343 1
GRID     702     1       6.69827 99.8264 .442747 1
GRID     703     1       7.05717 100.893 .491701 1
GRID     704     1       6.99517 97.8271 .483059 1
GRID     705     1       7.34945 98.9483 .533493 1
GRID     706     1       8.63062 113.413 .737187 1
GRID     707     1       8.86303 111.435 .777736 1
GRID     708     1       9.10545 109.56  .821218 1
GRID     709     1       9.24    111.787 .845876 1
GRID     710     1       9.00926 113.691 .803822 1
GRID     711     1       9.3881  113.947 .873445 1
GRID     712     1       9.16901 115.872 .832821 1
GRID     713     1       8.78899 115.693 .764699 1
GRID     714     1       8.96078 117.89  .795126 1
GRID     715     1       8.58    117.796 .728503 1
GRID     716     1       8.40907 115.498 .699566 1
GRID     717     1       8.19924 117.693 .664862 1
GRID     718     1       8.02925 115.285 .637404 1
GRID     719     1       8.2522  113.11  .673537 1
GRID     720     1       7.87403 112.777 .61285  1
GRID     721     1       8.11022 110.633 .650408 1
GRID     722     1       8.48641 111.052 .712587 1
GRID     723     1       8.35711 108.613 .690887 1
GRID     724     1       8.73098 109.107 .754562 1
GRID     725     1       10.2884 120.    1.05085 1
GRID     726     1       10.4841 118.196 1.09165 1
GRID     727     1       10.5735 116.423 1.11055 1
GRID     728     1       9.90733 120.    .973701 1
GRID     729     1       9.52628 120.    .89958  1
GRID     730     1       9.72241 118.055 .937353 1
GRID     731     1       10.1033 118.128 1.01299 1
GRID     732     1       9.92929 116.189 .978066 1
GRID     733     1       10.3095 116.33  1.05522 1
GRID     734     1       7.92    90.     .620072 1
GRID     735     1       8.2522  88.6771 .673537 1
GRID     736     1       8.58846 87.4571 .72995  1
GRID     737     1       8.58    90.     .728503 1
GRID     738     1       8.2522  91.323  .673537 1
GRID     739     1       8.58846 92.5429 .72995  1
GRID     740     1       8.26978 93.9632 .676428 1
GRID     741     1       7.92916 92.7545 .621516 1
GRID     742     1       7.95658 95.4964 .625848 1
GRID     743     1       7.61149 94.3066 .572435 1
GRID     744     1       7.59239 91.4379 .56955  1
GRID     745     1       7.26999 93.0045 .521961 1
GRID     746     1       7.26    90.     .52052  1
GRID     747     1       7.59239 88.5621 .56955  1
GRID     748     1       7.26999 86.9955 .521961 1
GRID     749     1       7.92916 87.2455 .621516 1
GRID     750     1       9.0735  100.893 .815419 1
GRID     751     1       9.36487 99.367  .869093 1
GRID     752     1       9.66248 97.9337 .925727 1
GRID     753     1       9.72241 100.158 .937353 1
GRID     754     1       9.43438 101.651 .882157 1
GRID     755     1       9.7968  102.353 .951889 1
GRID     756     1       9.51866 103.898 .898127 1
GRID     757     1       9.15316 103.236 .829918 1
GRID     758     1       9.24785 105.535 .847326 1
GRID     759     1       8.87939 104.921 .780636 1
GRID     760     1       8.78899 102.52  .764699 1
GRID     761     1       8.51204 104.254 .716928 1
GRID     762     1       8.42632 101.742 .702459 1
GRID     763     1       8.71433 100.073 .751665 1
GRID     764     1       8.3571  99.1829 .690887 1
GRID     765     1       8.65582 97.5891 .741531 1
GRID     766     1       9.00926 98.513  .803822 1
GRID     767     1       8.96078 96.1027 .795126 1
GRID     768     1       9.31045 97.0527 .858931 1
GRID     769     1       10.4772 109.107 1.09019 1
GRID     770     1       10.608  111.052 1.1179  1
GRID     771     1       10.3727 112.689 1.06833 1
GRID     772     1       10.2318 110.72  1.03919 1
GRID     773     1       9.99488 112.411 .991158 1
GRID     774     1       9.8559  110.363 .963522 1
GRID     775     1       10.1033 108.698 1.01299 1
GRID     776     1       9.72987 108.259 .938806 1
GRID     777     1       9.98761 106.627 .989702 1
GRID     778     1       10.3587 107.115 1.06542 1
GRID     779     1       10.253  105.079 1.04356 1
GRID     780     1       10.6217 105.608 1.12082 1
GRID     781     1       9.9     90.     .972245 1
GRID     782     1       10.2318 88.933  1.03919 1
GRID     783     1       10.5669 87.9334 1.10915 1
GRID     784     1       10.56   90.     1.10769 1
GRID     785     1       10.2318 91.067  1.03919 1
GRID     786     1       10.5669 92.0666 1.10915 1
GRID     787     1       10.246  93.1979 1.04211 1
GRID     788     1       9.90733 92.2042 .973701 1
GRID     789     1       9.92929 94.402  .978066 1
GRID     790     1       9.58705 93.418  .911201 1
GRID     791     1       9.5719  91.1405 .908295 1
GRID     792     1       9.24785 92.3615 .847326 1
GRID     793     1       9.24    90.     .845876 1
GRID     794     1       9.5719  88.8595 .908295 1
GRID     795     1       9.24785 87.6385 .847326 1
GRID     796     1       9.90733 87.7958 .973701 1
GRID     797     1       9.92929 85.5981 .978066 1
GRID     798     1       10.246  86.8021 1.04211 1
GRID     799     1       10.4425 101.578 1.0829  1
GRID     800     1       10.3727 99.5153 1.06833 1
GRID     801     1       10.6694 98.2132 1.13103 1
GRID     802     1       10.3166 97.4277 1.05667 1
GRID     803     1       10.6217 96.1784 1.12082 1
GRID     804     1       10.4772 70.8934 1.09019 1
GRID     805     1       10.608  68.9483 1.1179  1
GRID     806     1       10.3587 72.8854 1.06542 1
GRID     807     1       10.253  74.9209 1.04356 1
GRID     808     1       10.6217 74.3916 1.12082 1
GRID     809     1       10.4425 78.4222 1.0829  1
GRID     810     1       10.3727 80.4847 1.06833 1
GRID     811     1       10.6694 81.7868 1.13103 1
GRID     812     1       10.3166 82.5723 1.05667 1
GRID     813     1       10.6217 83.8216 1.12082 1
GRID     814     1       11.     61.9641 1.20306 1
GRID     815     1       11.     118.036 1.20306 1
GRID     816     1       11.     120.    1.20306 1
GRID     817     1       11.     116.508 1.20306 1
GRID     818     1       11.     114.762 1.20306 1
GRID     819     1       11.     112.986 1.20306 1
GRID     820     1       11.     111.21  1.20305 1
GRID     821     1       11.     109.434 1.20307 1
GRID     822     1       11.     107.658 1.20306 1
GRID     823     1       11.     105.882 1.20306 1
GRID     824     1       11.     104.106 1.20306 1
GRID     825     1       11.     102.29  1.20306 1
GRID     826     1       11.     100.474 1.20306 1
GRID     827     1       11.     98.6583 1.20305 1
GRID     828     1       11.     96.8424 1.20307 1
GRID     829     1       11.     95.0265 1.20306 1
GRID     830     1       11.     93.2106 1.20305 1
GRID     831     1       11.     91.0001 1.20305 1
GRID     832     1       11.     89.     1.20305 1
GRID     833     1       11.     86.7894 1.20305 1
GRID     834     1       11.     84.9735 1.20306 1
GRID     835     1       11.     83.1576 1.20307 1
GRID     836     1       11.     81.3417 1.20305 1
GRID     837     1       11.     79.5258 1.20306 1
GRID     838     1       11.     77.7099 1.20306 1
GRID     839     1       11.     75.894  1.20306 1
GRID     840     1       11.     74.118  1.20306 1
GRID     841     1       11.     72.3419 1.20306 1
GRID     842     1       11.     70.5658 1.20307 1
GRID     843     1       11.     68.7897 1.20305 1
GRID     844     1       11.     67.0137 1.20306 1
GRID     845     1       11.     65.2376 1.20306 1
GRID     846     1       4.3945  175.693 .190093 1
GRID     847     1       4.24321 171.052 .177207 1
GRID     848     1       4.1217  166.102 .167188 1
GRID     849     1       3.75292 164.705 .138569 1
GRID     850     1       3.38686 163.004 .112826 1
GRID     851     1       3.38686 136.996 .112826 1
GRID     852     1       3.75292 135.295 .138569 1
GRID     853     1       4.1217  133.898 .167188 1
GRID     854     1       4.24321 128.948 .177207 1
GRID     855     1       4.3945  124.307 .190093 1
GRID     856     1       4.3945  162.52  .190093 1
GRID     857     1       4.68244 159.367 .215876 1
GRID     858     1       4.98289 156.587 .244537 1
GRID     859     1       4.95367 152.204 .241671 1
GRID     860     1       4.95367 147.796 .241671 1
GRID     861     1       4.98289 143.413 .244537 1
GRID     862     1       4.68244 140.633 .215876 1
GRID     863     1       4.3945  137.48  .190093 1
GRID     864     1       6.13244 164.392 .370843 1
GRID     865     1       6.049   160.893 .360784 1
GRID     866     1       5.69031 159.637 .319134 1
GRID     867     1       5.33472 158.213 .280387 1
GRID     868     1       5.33472 141.787 .280387 1
GRID     869     1       5.69031 140.363 .319134 1
GRID     870     1       6.049   139.107 .360784 1
GRID     871     1       6.13244 135.608 .370843 1
GRID     872     1       6.23808 132.216 .383777 1
GRID     873     1       6.36481 128.948 .399592 1
GRID     874     1       6.13244 126.178 .370843 1
GRID     875     1       5.91551 123.198 .344981 1
GRID     876     1       6.34196 158.639 .396717 1
GRID     877     1       6.64385 156.587 .435552 1
GRID     878     1       6.95353 154.715 .477299 1
GRID     879     1       6.93262 151.575 .474417 1
GRID     880     1       6.93262 148.425 .474417 1
GRID     881     1       6.95353 145.285 .477299 1
GRID     882     1       6.64386 143.413 .435552 1
GRID     883     1       6.34196 141.361 .396717 1
GRID     884     1       7.98391 168.073 .630182 1
GRID     885     1       8.2434  166.102 .67209  1
GRID     886     1       8.14594 163.526 .65619  1
GRID     887     1       8.06533 160.893 .643183 1
GRID     888     1       8.00207 158.213 .633073 1
GRID     889     1       7.64955 157.154 .578207 1
GRID     890     1       7.29989 155.993 .526286 1
GRID     891     1       9.48044 169.977 .890865 1
GRID     892     1       9.35712 167.784 .86764  1
GRID     893     1       8.98505 167.27  .799473 1
GRID     894     1       8.61378 166.711 .734294 1
GRID     895     1       10.5256 174.603 1.1004  1
GRID     896     1       6.74148 128.445 .448504 1
GRID     897     1       7.11862 127.994 .500346 1
GRID     898     1       7.49616 127.589 .555124 1
GRID     899     1       7.64955 124.95  .578207 1
GRID     900     1       7.81852 122.419 .604187 1
GRID     901     1       7.29989 144.007 .526286 1
GRID     902     1       7.64955 142.846 .578207 1
GRID     903     1       8.00207 141.787 .63307  1
GRID     904     1       8.06533 139.107 .643186 1
GRID     905     1       8.14594 136.474 .65619  1
GRID     906     1       8.2434  133.898 .67209  1
GRID     907     1       7.98391 131.927 .630182 1
GRID     908     1       7.73449 129.826 .591196 1
GRID     909     1       8.30482 156.587 .682209 1
GRID     910     1       8.61378 155.076 .734294 1
GRID     911     1       8.92831 153.671 .789329 1
GRID     912     1       8.91204 151.225 .78643  1
GRID     913     1       8.91204 148.775 .78643  1
GRID     914     1       8.92831 146.33  .789329 1
GRID     915     1       8.61378 144.924 .734294 1
GRID     916     1       8.30482 143.413 .682212 1
GRID     917     1       9.6173  166.102 .917009 1
GRID     918     1       9.88532 164.51  .969339 1
GRID     919     1       10.1606 163.004 1.02463 1
GRID     920     1       10.0817 160.893 1.00862 1
GRID     921     1       10.0167 158.753 .995523 1
GRID     922     1       9.96578 156.587 .985337 1
GRID     923     1       9.6173  155.685 .917012 1
GRID     924     1       9.27138 154.715 .851678 1
GRID     925     1       10.5256 163.61  1.10041 1
GRID     926     1       8.61378 133.289 .734294 1
GRID     927     1       8.98505 132.731 .799473 1
GRID     928     1       9.35712 132.216 .86764  1
GRID     929     1       9.48044 130.023 .890868 1
GRID     930     1       9.6173  127.889 .917009 1
GRID     931     1       9.76711 125.818 .946074 1
GRID     932     1       9.54912 123.963 .903939 1
GRID     933     1       9.34158 122.024 .864737 1
GRID     934     1       9.27138 145.285 .851678 1
GRID     935     1       9.6173  144.315 .917009 1
GRID     936     1       9.96578 143.413 .98534  1
GRID     937     1       10.0167 141.248 .995523 1
GRID     938     1       10.0817 139.107 1.00862 1
GRID     939     1       10.1606 136.996 1.02463 1
GRID     940     1       9.88532 135.49  .969339 1
GRID     941     1       9.6173  133.898 .917012 1
GRID     942     1       10.2743 155.32  1.04793 1
GRID     943     1       10.5875 154.128 1.11352 1
GRID     944     1       10.5875 145.872 1.11352 1
GRID     945     1       10.2743 144.68  1.04793 1
GRID     946     1       10.1463 125.599 1.02172 1
GRID     947     1       10.5256 125.397 1.1004  1
GRID     948     1       10.5256 136.39  1.1004  1
GRID     949     1       2.925   160.    .084128 1
GRID     950     1       2.925   140.    .084128 1
GRID     951     1       2.925   126.667 .084128 1
GRID     952     1       2.925   133.334 .084131 1
GRID     953     1       2.925   146.667 .084131 1
GRID     954     1       2.925   153.334 .084128 1
GRID     955     1       2.925   166.667 .084131 1
GRID     956     1       2.925   173.334 .084128 1
GRID     957     1       2.925   180.    .084128 1
GRID     958     1       10.845  174.762 1.16899 1
GRID     959     1       10.845  164.106 1.169   1
GRID     960     1       10.845  153.211 1.169   1
GRID     961     1       10.845  146.789 1.169   1
GRID     962     1       10.845  135.894 1.169   1
GRID     963     1       10.845  125.238 1.169   1
GRID     964     1       10.845  178.036 1.16899 1
GRID     965     1       10.845 -180.    1.169   1
GRID     966     1       10.845  176.508 1.16901 1
GRID     967     1       10.845  172.986 1.16899 1
GRID     968     1       10.845  171.21  1.16899 1
GRID     969     1       10.845  169.434 1.16899 1
GRID     970     1       10.845  167.658 1.16901 1
GRID     971     1       10.845  165.882 1.16899 1
GRID     972     1       10.845  162.29  1.16899 1
GRID     973     1       10.845  160.474 1.169   1
GRID     974     1       10.845  158.658 1.16899 1
GRID     975     1       10.845  156.842 1.169   1
GRID     976     1       10.845  155.027 1.169   1
GRID     977     1       10.845  151.    1.169   1
GRID     978     1       10.845  149.    1.169   1
GRID     979     1       10.845  144.974 1.169   1
GRID     980     1       10.845  143.158 1.169   1
GRID     981     1       10.845  141.342 1.169   1
GRID     982     1       10.845  139.526 1.169   1
GRID     983     1       10.845  137.71  1.169   1
GRID     984     1       10.845  134.118 1.169   1
GRID     985     1       10.845  132.342 1.169   1
GRID     986     1       10.845  130.566 1.169   1
GRID     987     1       10.845  128.79  1.169   1
GRID     988     1       10.845  127.014 1.169   1
GRID     989     1       10.845  123.492 1.169   1
GRID     990     1       10.845  121.964 1.169   1
GRID     991     1       3.42946-180.    .115686 1
GRID     992     1       3.635   174.791 .129988 1
GRID     993     1       3.86725 170.174 .147154 1
GRID     994     1       4.01462 175.285 .158601 1
GRID     995     1       3.81051-180.    .142861 1
GRID     996     1       4.19156-180.    .172912 1
GRID     997     1       3.2557  174.183 .104248 1
GRID     998     1       3.11904 167.784 .095673 1
GRID     999     1       3.49239 169.107 .119975 1
GRID     1000    1       4.01462 124.715 .158601 1
GRID     1001    1       3.635   125.209 .129988 1
GRID     1002    1       3.86725 129.826 .147154 1
GRID     1003    1       3.49239 130.893 .119975 1
GRID     1004    1       3.2557  125.818 .104248 1
GRID     1005    1       3.11904 132.216 .095673 1
GRID     1006    1       3.96    150.    .154306 1
GRID     1007    1       4.29423 147.457 .181502 1
GRID     1008    1       4.63569 145.285 .211577 1
GRID     1009    1       4.62    150.    .210146 1
GRID     1010    1       4.29423 152.543 .181502 1
GRID     1011    1       4.63569 154.715 .211577 1
GRID     1012    1       4.32791 157.589 .184366 1
GRID     1013    1       3.97829 155.496 .155738 1
GRID     1014    1       4.03267 160.893 .160033 1
GRID     1015    1       3.67472 158.948 .132849 1
GRID     1016    1       3.635   153.005 .129988 1
GRID     1017    1       3.32193 156.587 .108537 1
GRID     1018    1       3.3     150.    .107108 1
GRID     1019    1       3.635   146.996 .129988 1
GRID     1020    1       3.32193 143.413 .108537 1
GRID     1021    1       3.67473 141.052 .132849 1
GRID     1022    1       3.97829 144.504 .155738 1
GRID     1023    1       4.03267 139.107 .160033 1
GRID     1024    1       4.32791 142.411 .184366 1
GRID     1025    1       5.76635 163.373 .327749 1
GRID     1026    1       4.49253 167.27  .198686 1
GRID     1027    1       5.04083 160.893 .250273 1
GRID     1028    1       5.40233 162.216 .287561 1
GRID     1029    1       5.23859 130.893 .270347 1
GRID     1030    1       5.61323 130.158 .31052  1
GRID     1031    1       5.98869 129.515 .353602 1
GRID     1032    1       5.86621 133.004 .339236 1
GRID     1033    1       5.4956  133.898 .297604 1
GRID     1034    1       5.76635 136.627 .327749 1
GRID     1035    1       5.40233 137.784 .287561 1
GRID     1036    1       5.12652 134.921 .258875 1
GRID     1037    1       5.04083 139.107 .25027  1
GRID     1038    1       4.75933 136.102 .22304  1
GRID     1039    1       4.86494 131.742 .233071 1
GRID     1040    1       4.49253 132.731 .198686 1
GRID     1041    1       4.62    128.213 .210146 1
GRID     1042    1       4.99744 127.589 .245972 1
GRID     1043    1       4.77456 123.963 .224472 1
GRID     1044    1       5.15477 123.671 .261742 1
GRID     1045    1       5.37539 127.053 .284692 1
GRID     1046    1       5.53509 123.418 .301909 1
GRID     1047    1       5.75375 126.587 .326311 1
GRID     1048    1       5.94    150.    .347854 1
GRID     1049    1       6.27289 148.26  .38809  1
GRID     1050    1       6.61099 146.696 .431235 1
GRID     1051    1       6.6     150.    .429798 1
GRID     1052    1       6.27289 151.741 .38809  1
GRID     1053    1       6.61099 153.304 .431235 1
GRID     1054    1       6.296   155.209 .390966 1
GRID     1055    1       5.95221 153.671 .349291 1
GRID     1056    1       5.98869 157.311 .353599 1
GRID     1057    1       5.63904 155.818 .313393 1
GRID     1058    1       5.61323 151.945 .310523 1
GRID     1059    1       5.29373 154.128 .276083 1
GRID     1060    1       5.28    150.    .274648 1
GRID     1061    1       5.61324 148.055 .31052  1
GRID     1062    1       5.29373 145.872 .276083 1
GRID     1063    1       5.63904 144.183 .313393 1
GRID     1064    1       5.95221 146.33  .349291 1
GRID     1065    1       5.98869 142.689 .353602 1
GRID     1066    1       6.296   144.791 .390966 1
GRID     1067    1       7.13899 163.898 .503227 1
GRID     1068    1       7.41827 161.857 .543588 1
GRID     1069    1       7.70628 159.966 .586867 1
GRID     1070    1       7.78129 162.731 .598415 1
GRID     1071    1       7.50584 164.705 .556568 1
GRID     1072    1       7.87403 165.436 .61285  1
GRID     1073    1       7.61149 167.48  .572435 1
GRID     1074    1       7.23997 166.826 .517638 1
GRID     1075    1       6.8695  166.102 .465778 1
GRID     1076    1       6.50025 165.295 .416849 1
GRID     1077    1       6.77371 163.004 .452823 1
GRID     1078    1       6.41027 162.008 .405343 1
GRID     1079    1       6.69827 159.826 .442747 1
GRID     1080    1       7.05717 160.893 .491701 1
GRID     1081    1       6.99517 157.827 .483059 1
GRID     1082    1       7.34945 158.948 .533493 1
GRID     1083    1       9.10545 169.56  .821218 1
GRID     1084    1       8.3571  168.613 .690887 1
GRID     1085    1       8.73098 169.107 .754562 1
GRID     1086    1       10.4841 178.196 1.09165 1
GRID     1087    1       10.5735 176.423 1.11055 1
GRID     1088    1       7.43782 122.543 .546473 1
GRID     1089    1       7.05717 122.68  .491701 1
GRID     1090    1       7.26999 125.209 .521961 1
GRID     1091    1       6.8906  125.496 .46866  1
GRID     1092    1       6.67656 122.833 .439868 1
GRID     1093    1       6.51141 125.818 .418289 1
GRID     1094    1       6.296   123.005 .390966 1
GRID     1095    1       7.13899 136.102 .503227 1
GRID     1096    1       7.50584 135.295 .556568 1
GRID     1097    1       7.87403 134.564 .61285  1
GRID     1098    1       7.78129 137.27  .598415 1
GRID     1099    1       7.41827 138.143 .543588 1
GRID     1100    1       7.70628 140.034 .586867 1
GRID     1101    1       7.34945 141.052 .533493 1
GRID     1102    1       7.05717 139.107 .491701 1
GRID     1103    1       6.99517 142.173 .483059 1
GRID     1104    1       6.69827 140.174 .442747 1
GRID     1105    1       6.77371 136.996 .452823 1
GRID     1106    1       6.41027 137.992 .405343 1
GRID     1107    1       6.50025 134.705 .416849 1
GRID     1108    1       6.8695  133.898 .465778 1
GRID     1109    1       6.61099 131.518 .431235 1
GRID     1110    1       6.98478 130.893 .481618 1
GRID     1111    1       7.23997 133.174 .517638 1
GRID     1112    1       7.35932 130.333 .534937 1
GRID     1113    1       7.61149 132.52  .572435 1
GRID     1114    1       7.92    150.    .620072 1
GRID     1115    1       8.2522  148.677 .673537 1
GRID     1116    1       8.58846 147.457 .72995  1
GRID     1117    1       8.58    150.    .728503 1
GRID     1118    1       8.2522  151.323 .673537 1
GRID     1119    1       8.58846 152.543 .72995  1
GRID     1120    1       8.26978 153.963 .676428 1
GRID     1121    1       7.92916 152.755 .621516 1
GRID     1122    1       7.95658 155.496 .625848 1
GRID     1123    1       7.61149 154.307 .572435 1
GRID     1124    1       7.59239 151.438 .56955  1
GRID     1125    1       7.26999 153.005 .521961 1
GRID     1126    1       7.26    150.    .52052  1
GRID     1127    1       7.59239 148.562 .56955  1
GRID     1128    1       7.26999 146.996 .521961 1
GRID     1129    1       7.61149 145.693 .572435 1
GRID     1130    1       7.92916 147.246 .621516 1
GRID     1131    1       7.95658 144.504 .625848 1
GRID     1132    1       8.26978 146.037 .676428 1
GRID     1133    1       9.0735  160.893 .815419 1
GRID     1134    1       9.36487 159.367 .869093 1
GRID     1135    1       9.66248 157.934 .925727 1
GRID     1136    1       9.72241 160.158 .937353 1
GRID     1137    1       9.43438 161.651 .882154 1
GRID     1138    1       9.7968  162.353 .951889 1
GRID     1139    1       9.51866 163.898 .898127 1
GRID     1140    1       9.15316 163.236 .829921 1
GRID     1141    1       9.24785 165.535 .847326 1
GRID     1142    1       8.87939 164.921 .780636 1
GRID     1143    1       8.78899 162.52  .764702 1
GRID     1144    1       8.51204 164.254 .716928 1
GRID     1145    1       8.42632 161.742 .702459 1
GRID     1146    1       8.71433 160.073 .751665 1
GRID     1147    1       8.3571  159.183 .690887 1
GRID     1148    1       8.65582 157.589 .741531 1
GRID     1149    1       9.00926 158.513 .803822 1
GRID     1150    1       8.96078 156.103 .795126 1
GRID     1151    1       9.31045 157.053 .858931 1
GRID     1152    1       10.4772 169.107 1.09019 1
GRID     1153    1       10.608  171.052 1.1179  1
GRID     1154    1       10.2318 170.72  1.0392  1
GRID     1155    1       9.8559  170.363 .963522 1
GRID     1156    1       10.1033 168.698 1.01299 1
GRID     1157    1       9.72987 168.259 .938806 1
GRID     1158    1       9.98761 166.627 .989705 1
GRID     1159    1       10.3587 167.115 1.06543 1
GRID     1160    1       10.253  165.079 1.04356 1
GRID     1161    1       10.6217 165.608 1.12082 1
GRID     1162    1       8.63062 126.587 .737187 1
GRID     1163    1       9.00926 126.309 .803822 1
GRID     1164    1       9.3881  126.053 .873445 1
GRID     1165    1       9.24    128.213 .845876 1
GRID     1166    1       8.86303 128.565 .777736 1
GRID     1167    1       9.10545 130.44  .821218 1
GRID     1168    1       8.73098 130.893 .754562 1
GRID     1169    1       8.48641 128.948 .712587 1
GRID     1170    1       8.3571  131.387 .690887 1
GRID     1171    1       8.11022 129.367 .650408 1
GRID     1172    1       8.2522  126.89  .673537 1
GRID     1173    1       7.87403 127.223 .61285  1
GRID     1174    1       8.02925 124.715 .637404 1
GRID     1175    1       8.40907 124.502 .699566 1
GRID     1176    1       8.19924 122.307 .664862 1
GRID     1177    1       8.58    122.204 .728503 1
GRID     1178    1       8.78899 124.307 .764699 1
GRID     1179    1       8.96078 122.111 .795126 1
GRID     1180    1       9.16901 124.128 .832821 1
GRID     1181    1       9.0735  139.107 .815419 1
GRID     1182    1       9.43438 138.349 .882157 1
GRID     1183    1       9.7968  137.648 .951889 1
GRID     1184    1       9.72241 139.842 .937353 1
GRID     1185    1       9.36487 140.633 .869093 1
GRID     1186    1       9.66248 142.066 .925727 1
GRID     1187    1       9.31045 142.947 .858934 1
GRID     1188    1       9.00926 141.487 .803822 1
GRID     1189    1       8.96078 143.897 .795126 1
GRID     1190    1       8.65582 142.411 .741531 1
GRID     1191    1       8.71433 139.927 .751668 1
GRID     1192    1       8.3571  140.817 .690887 1
GRID     1193    1       8.42632 138.259 .702459 1
GRID     1194    1       8.78899 137.48  .764699 1
GRID     1195    1       8.51204 135.746 .716928 1
GRID     1196    1       8.87939 135.079 .780633 1
GRID     1197    1       9.15316 136.764 .829921 1
GRID     1198    1       9.24785 134.465 .847326 1
GRID     1199    1       9.51866 136.102 .898127 1
GRID     1200    1       9.9     150.    .972245 1
GRID     1201    1       10.2318 148.933 1.03919 1
GRID     1202    1       10.5669 147.933 1.10915 1
GRID     1203    1       10.56   150.    1.10769 1
GRID     1204    1       10.2318 151.067 1.03919 1
GRID     1205    1       10.5669 152.067 1.10915 1
GRID     1206    1       10.246  153.198 1.04211 1
GRID     1207    1       9.90733 152.204 .973701 1
GRID     1208    1       9.92929 154.402 .978063 1
GRID     1209    1       9.58705 153.418 .911201 1
GRID     1210    1       9.5719  151.141 .908295 1
GRID     1211    1       9.24785 152.362 .847326 1
GRID     1212    1       9.24    150.    .845873 1
GRID     1213    1       9.5719  148.86  .908295 1
GRID     1214    1       9.24785 147.639 .847326 1
GRID     1215    1       9.58705 146.582 .911197 1
GRID     1216    1       9.90733 147.796 .973701 1
GRID     1217    1       9.92929 145.598 .978066 1
GRID     1218    1       10.246  146.802 1.04211 1
GRID     1219    1       10.4425 161.578 1.0829  1
GRID     1220    1       10.3727 159.515 1.06833 1
GRID     1221    1       10.6694 158.213 1.13103 1
GRID     1222    1       10.3166 157.428 1.05667 1
GRID     1223    1       10.6217 156.178 1.12082 1
GRID     1224    1       10.4841 121.804 1.09165 1
GRID     1225    1       10.5735 123.577 1.11055 1
GRID     1226    1       9.72241 121.945 .937353 1
GRID     1227    1       10.1033 121.872 1.01299 1
GRID     1228    1       9.92929 123.811 .978063 1
GRID     1229    1       10.3095 123.671 1.05522 1
GRID     1230    1       10.4772 130.893 1.09019 1
GRID     1231    1       10.608  128.948 1.1179  1
GRID     1232    1       10.3727 127.311 1.06833 1
GRID     1233    1       10.2318 129.28  1.03919 1
GRID     1234    1       9.99488 127.589 .991158 1
GRID     1235    1       9.8559  129.637 .963522 1
GRID     1236    1       10.1033 131.302 1.01299 1
GRID     1237    1       9.72987 131.742 .938806 1
GRID     1238    1       9.98761 133.373 .989702 1
GRID     1239    1       10.3587 132.885 1.06542 1
GRID     1240    1       10.253  134.921 1.04356 1
GRID     1241    1       10.6217 134.392 1.12082 1
GRID     1242    1       10.4425 138.422 1.0829  1
GRID     1243    1       10.3727 140.485 1.06833 1
GRID     1244    1       10.6694 141.787 1.13103 1
GRID     1245    1       10.3166 142.572 1.05667 1
GRID     1246    1       10.6217 143.822 1.12082 1
GRID     1247    1       11.     121.964 1.20306 1
GRID     1248    1       11.     178.036 1.20305 1
GRID     1249    1       11.    -180.    1.20306 1
GRID     1250    1       11.     176.508 1.20306 1
GRID     1251    1       11.     174.762 1.20307 1
GRID     1252    1       11.     172.986 1.20306 1
GRID     1253    1       11.     171.21  1.20306 1
GRID     1254    1       11.     169.434 1.20306 1
GRID     1255    1       11.     167.658 1.20306 1
GRID     1256    1       11.     165.882 1.20307 1
GRID     1257    1       11.     164.106 1.20307 1
GRID     1258    1       11.     162.29  1.20306 1
GRID     1259    1       11.     160.474 1.20306 1
GRID     1260    1       11.     158.658 1.20306 1
GRID     1261    1       11.     156.842 1.20306 1
GRID     1262    1       11.     155.027 1.20306 1
GRID     1263    1       11.     153.211 1.20306 1
GRID     1264    1       11.     151.    1.20306 1
GRID     1265    1       11.     149.    1.20306 1
GRID     1266    1       11.     146.789 1.20306 1
GRID     1267    1       11.     144.974 1.20306 1
GRID     1268    1       11.     143.158 1.20306 1
GRID     1269    1       11.     141.342 1.20306 1
GRID     1270    1       11.     139.526 1.20306 1
GRID     1271    1       11.     137.71  1.20306 1
GRID     1272    1       11.     135.894 1.20306 1
GRID     1273    1       11.     134.118 1.20306 1
GRID     1274    1       11.     132.342 1.20306 1
GRID     1275    1       11.     130.566 1.20306 1
GRID     1276    1       11.     128.79  1.20306 1
GRID     1277    1       11.     127.014 1.20306 1
GRID     1278    1       11.     125.238 1.20306 1
GRID     1279    1       11.     123.492 1.20306 1
GRID     1280    1       4.57261-120.    .205848 1
GRID     1281    1       4.3945 -124.307 .190093 1
GRID     1282    1       4.24321-128.948 .177207 1
GRID     1283    1       4.1217 -133.898 .167188 1
GRID     1284    1       3.75292-135.295 .138569 1
GRID     1285    1       3.38686-136.996 .112826 1
GRID     1286    1       5.71577-120.    .322004 1
GRID     1287    1       3.38686-163.004 .112826 1
GRID     1288    1       3.75292-164.705 .138569 1
GRID     1289    1       4.1217 -166.102 .167188 1
GRID     1290    1       4.24321-171.052 .177207 1
GRID     1291    1       4.3945 -175.693 .190093 1
GRID     1292    1       4.3945 -137.48  .190093 1
GRID     1293    1       4.68244-140.633 .215876 1
GRID     1294    1       4.98289-143.413 .244537 1
GRID     1295    1       4.95367-147.796 .241671 1
GRID     1296    1       4.95367-152.204 .241671 1
GRID     1297    1       4.68244-159.367 .215876 1
GRID     1298    1       4.3945 -162.52  .190093 1
GRID     1299    1       5.91551-123.198 .344981 1
GRID     1300    1       6.13244-126.178 .370843 1
GRID     1301    1       6.36481-128.948 .399592 1
GRID     1302    1       6.23808-132.216 .383777 1
GRID     1303    1       6.13244-135.608 .370843 1
GRID     1304    1       6.049  -139.107 .360784 1
GRID     1305    1       5.69031-140.363 .319134 1
GRID     1306    1       5.33472-141.787 .280387 1
GRID     1307    1       8.00208-120.    .633073 1
GRID     1308    1       7.81852-122.419 .604187 1
GRID     1309    1       7.64955-124.95  .578207 1
GRID     1310    1       7.49616-127.589 .555124 1
GRID     1311    1       7.11862-127.994 .500346 1
GRID     1312    1       6.74148-128.445 .448504 1
GRID     1313    1       9.14523-120.    .828468 1
GRID     1314    1       6.34196-141.361 .396717 1
GRID     1315    1       6.64385-143.413 .435552 1
GRID     1316    1       6.95353-145.285 .477299 1
GRID     1317    1       6.93262-148.425 .474417 1
GRID     1318    1       7.73449-129.826 .591196 1
GRID     1319    1       7.98391-131.927 .630182 1
GRID     1320    1       8.2434 -133.898 .67209  1
GRID     1321    1       8.14594-136.474 .65619  1
GRID     1322    1       8.06533-139.107 .643186 1
GRID     1323    1       8.00207-141.787 .63307  1
GRID     1324    1       7.64955-142.846 .578207 1
GRID     1325    1       7.29989-144.007 .526286 1
GRID     1326    1       9.34158-122.024 .864737 1
GRID     1327    1       9.54912-123.963 .903939 1
GRID     1328    1       9.76711-125.818 .946074 1
GRID     1329    1       9.6173 -127.889 .917009 1
GRID     1330    1       9.48044-130.023 .890868 1
GRID     1331    1       9.35712-132.216 .86764  1
GRID     1332    1       8.98506-132.731 .799473 1
GRID     1333    1       8.61378-133.289 .734294 1
GRID     1334    1       10.5256-125.397 1.1004  1
GRID     1335    1       10.1463-125.599 1.02172 1
GRID     1336    1       8.30482-143.413 .682212 1
GRID     1337    1       8.61378-144.924 .734294 1
GRID     1338    1       8.92831-146.33  .789329 1
GRID     1339    1       8.91204-148.775 .78643  1
GRID     1340    1       8.91204-151.225 .78643  1
GRID     1341    1       8.92831-153.671 .789329 1
GRID     1342    1       8.61378-155.076 .734294 1
GRID     1343    1       9.6173 -133.898 .917012 1
GRID     1344    1       9.88532-135.49  .969339 1
GRID     1345    1       10.1606-136.996 1.02463 1
GRID     1346    1       10.0817-139.107 1.00862 1
GRID     1347    1       10.0167-141.248 .995523 1
GRID     1348    1       9.96578-143.413 .985337 1
GRID     1349    1       9.6173 -144.315 .917009 1
GRID     1350    1       9.27138-145.285 .851678 1
GRID     1351    1       10.5256-136.39  1.1004  1
GRID     1352    1       9.27138-154.715 .851678 1
GRID     1353    1       9.6173 -155.685 .917012 1
GRID     1354    1       9.96578-156.587 .985337 1
GRID     1355    1       10.0167-158.753 .995523 1
GRID     1356    1       10.2743-144.68  1.04793 1
GRID     1357    1       10.5875-145.872 1.11352 1
GRID     1358    1       10.5875-154.128 1.11352 1
GRID     1359    1       10.2743-155.32  1.04793 1
GRID     1360    1       10.5256-174.603 1.1004  1
GRID     1361    1       2.925  -140.    .084128 1
GRID     1362    1       2.925  -160.    .084128 1
GRID     1363    1       2.925  -173.333 .084128 1
GRID     1364    1       2.925  -166.666 .084128 1
GRID     1365    1       2.925  -153.333 .084128 1
GRID     1366    1       2.925  -146.666 .084128 1
GRID     1367    1       2.925  -133.333 .084128 1
GRID     1368    1       2.925  -126.666 .084131 1
GRID     1369    1       2.925  -120.    .084128 1
GRID     1370    1       10.845 -125.238 1.169   1
GRID     1371    1       10.845 -135.894 1.169   1
GRID     1372    1       10.845 -146.789 1.169   1
GRID     1373    1       10.845 -153.211 1.169   1
GRID     1374    1       10.845 -164.106 1.169   1
GRID     1375    1       10.845 -174.762 1.16899 1
GRID     1376    1       10.845 -121.964 1.169   1
GRID     1377    1       10.845 -120.    1.169   1
GRID     1378    1       10.845 -123.492 1.169   1
GRID     1379    1       10.845 -127.014 1.169   1
GRID     1380    1       10.845 -128.79  1.169   1
GRID     1381    1       10.845 -130.566 1.169   1
GRID     1382    1       10.845 -132.342 1.169   1
GRID     1383    1       10.845 -134.118 1.169   1
GRID     1384    1       10.845 -137.71  1.169   1
GRID     1385    1       10.845 -139.526 1.169   1
GRID     1386    1       10.845 -141.342 1.169   1
GRID     1387    1       10.845 -143.158 1.169   1
GRID     1388    1       10.845 -144.974 1.169   1
GRID     1389    1       10.845 -149.    1.169   1
GRID     1390    1       10.845 -151.    1.169   1
GRID     1391    1       10.845 -155.027 1.169   1
GRID     1392    1       10.845 -156.842 1.169   1
GRID     1393    1       10.845 -158.658 1.16899 1
GRID     1394    1       10.845 -160.474 1.169   1
GRID     1395    1       10.845 -165.882 1.16899 1
GRID     1396    1       10.845 -167.658 1.16901 1
GRID     1397    1       10.845 -169.434 1.16899 1
GRID     1398    1       10.845 -171.21  1.16899 1
GRID     1399    1       10.845 -172.986 1.16899 1
GRID     1400    1       10.845 -176.508 1.16901 1
GRID     1401    1       10.845 -178.036 1.16899 1
GRID     1402    1       3.42946-120.    .115686 1
GRID     1403    1       3.635  -125.209 .129988 1
GRID     1404    1       3.86725-129.826 .147154 1
GRID     1405    1       4.01462-124.715 .158601 1
GRID     1406    1       3.81051-120.    .142861 1
GRID     1407    1       4.19156-120.    .172912 1
GRID     1408    1       3.2557 -125.818 .104248 1
GRID     1409    1       3.11904-132.216 .095673 1
GRID     1410    1       3.49239-130.893 .119975 1
GRID     1411    1       4.95367-120.    .241671 1
GRID     1412    1       5.33472-120.    .280387 1
GRID     1413    1       4.01462-175.285 .158601 1
GRID     1414    1       3.635  -174.791 .129988 1
GRID     1415    1       3.86725-170.174 .147154 1
GRID     1416    1       3.49239-169.107 .119975 1
GRID     1417    1       3.2557 -174.183 .104248 1
GRID     1418    1       3.11904-167.784 .095673 1
GRID     1419    1       3.96   -150.    .154306 1
GRID     1420    1       4.29423-152.543 .181502 1
GRID     1421    1       4.63569-154.715 .211577 1
GRID     1422    1       4.62   -150.    .210146 1
GRID     1423    1       4.29423-147.457 .181502 1
GRID     1424    1       4.63569-145.285 .211577 1
GRID     1425    1       4.32791-142.411 .184366 1
GRID     1426    1       3.97829-144.504 .155738 1
GRID     1427    1       4.03267-139.107 .160033 1
GRID     1428    1       3.67472-141.052 .132849 1
GRID     1429    1       3.635  -146.996 .129988 1
GRID     1430    1       3.32193-143.413 .108537 1
GRID     1431    1       3.3    -150.    .107108 1
GRID     1432    1       3.635  -153.005 .129988 1
GRID     1433    1       3.32193-156.587 .108537 1
GRID     1434    1       3.67472-158.948 .132849 1
GRID     1435    1       3.97829-155.496 .155738 1
GRID     1436    1       4.03267-160.893 .160033 1
GRID     1437    1       4.32791-157.589 .184366 1
GRID     1438    1       5.23859-130.893 .270347 1
GRID     1439    1       5.4956 -133.898 .297604 1
GRID     1440    1       5.76635-136.627 .327749 1
GRID     1441    1       5.86621-133.004 .339236 1
GRID     1442    1       5.61323-130.158 .31052  1
GRID     1443    1       5.98869-129.515 .353602 1
GRID     1444    1       5.75375-126.587 .326311 1
GRID     1445    1       5.37539-127.053 .284692 1
GRID     1446    1       5.53509-123.418 .301909 1
GRID     1447    1       5.15477-123.671 .261742 1
GRID     1448    1       4.99744-127.589 .245972 1
GRID     1449    1       4.77456-123.963 .224472 1
GRID     1450    1       4.62   -128.213 .210146 1
GRID     1451    1       4.86494-131.742 .233071 1
GRID     1452    1       4.49253-132.731 .198686 1
GRID     1453    1       4.75933-136.102 .22304  1
GRID     1454    1       5.12652-134.921 .258875 1
GRID     1455    1       5.04083-139.107 .25027  1
GRID     1456    1       5.40233-137.784 .287561 1
GRID     1457    1       6.85892-120.    .464338 1
GRID     1458    1       7.05717-122.68  .491701 1
GRID     1459    1       7.26999-125.209 .521961 1
GRID     1460    1       7.43782-122.543 .546473 1
GRID     1461    1       7.23997-120.    .517638 1
GRID     1462    1       7.62102-120.    .573879 1
GRID     1463    1       6.47787-120.    .413973 1
GRID     1464    1       6.09682-120.    .366533 1
GRID     1465    1       6.296  -123.005 .390966 1
GRID     1466    1       6.67656-122.833 .439868 1
GRID     1467    1       6.51141-125.818 .418289 1
GRID     1468    1       6.8906 -125.496 .46866  1
GRID     1469    1       8.38313-120.    .695225 1
GRID     1470    1       8.76418-120.    .760355 1
GRID     1471    1       4.49253-167.27  .198686 1
GRID     1472    1       6.61099-146.696 .431235 1
GRID     1473    1       6.296  -144.791 .390966 1
GRID     1474    1       5.98869-142.689 .353602 1
GRID     1475    1       5.29373-145.872 .276083 1
GRID     1476    1       7.13899-136.102 .503227 1
GRID     1477    1       7.41827-138.143 .543588 1
GRID     1478    1       7.70628-140.034 .586867 1
GRID     1479    1       7.78129-137.27  .598415 1
GRID     1480    1       7.50584-135.295 .556568 1
GRID     1481    1       7.87403-134.564 .61285  1
GRID     1482    1       7.61149-132.52  .572435 1
GRID     1483    1       7.23997-133.174 .517638 1
GRID     1484    1       7.35932-130.333 .534937 1
GRID     1485    1       6.98478-130.893 .481618 1
GRID     1486    1       6.8695 -133.898 .465778 1
GRID     1487    1       6.61099-131.518 .431235 1
GRID     1488    1       6.50025-134.705 .416849 1
GRID     1489    1       6.77371-136.996 .452823 1
GRID     1490    1       6.41027-137.992 .405343 1
GRID     1491    1       6.69827-140.174 .442747 1
GRID     1492    1       7.05717-139.107 .491701 1
GRID     1493    1       6.99517-142.173 .483059 1
GRID     1494    1       7.34945-141.052 .533493 1
GRID     1495    1       8.63062-126.587 .737187 1
GRID     1496    1       8.86303-128.565 .777736 1
GRID     1497    1       9.10545-130.44  .821218 1
GRID     1498    1       9.24   -128.213 .845876 1
GRID     1499    1       9.00926-126.309 .803822 1
GRID     1500    1       9.3881 -126.053 .873445 1
GRID     1501    1       9.16901-124.128 .832821 1
GRID     1502    1       8.78899-124.307 .764699 1
GRID     1503    1       8.96078-122.111 .795126 1
GRID     1504    1       8.58   -122.204 .728503 1
GRID     1505    1       8.40907-124.502 .699566 1
GRID     1506    1       8.19924-122.307 .664862 1
GRID     1507    1       8.02925-124.715 .637404 1
GRID     1508    1       8.2522 -126.89  .673537 1
GRID     1509    1       7.87403-127.223 .61285  1
GRID     1510    1       8.11022-129.367 .650408 1
GRID     1511    1       8.48641-128.948 .712587 1
GRID     1512    1       8.35711-131.387 .690887 1
GRID     1513    1       8.73098-130.893 .754562 1
GRID     1514    1       10.2884-120.    1.05085 1
GRID     1515    1       10.4841-121.804 1.09165 1
GRID     1516    1       10.5735-123.577 1.11055 1
GRID     1517    1       9.90733-120.    .973701 1
GRID     1518    1       9.52628-120.    .89958  1
GRID     1519    1       9.72241-121.945 .937353 1
GRID     1520    1       10.1033-121.872 1.01299 1
GRID     1521    1       9.92929-123.811 .978063 1
GRID     1522    1       10.3095-123.671 1.05522 1
GRID     1523    1       7.92   -150.    .620072 1
GRID     1524    1       8.2522 -151.323 .673537 1
GRID     1525    1       8.58846-152.543 .72995  1
GRID     1526    1       8.58   -150.    .728503 1
GRID     1527    1       8.2522 -148.677 .673537 1
GRID     1528    1       8.58846-147.457 .72995  1
GRID     1529    1       8.26978-146.037 .676428 1
GRID     1530    1       7.92916-147.246 .621516 1
GRID     1531    1       7.95658-144.504 .625848 1
GRID     1532    1       7.61149-145.693 .572435 1
GRID     1533    1       7.59239-148.562 .56955  1
GRID     1534    1       7.26999-146.996 .521961 1
GRID     1535    1       7.26   -150.    .52052  1
GRID     1536    1       7.59239-151.438 .56955  1
GRID     1537    1       7.92916-152.755 .621516 1
GRID     1538    1       8.26978-153.963 .676428 1
GRID     1539    1       9.0735 -139.107 .815419 1
GRID     1540    1       9.36487-140.633 .869093 1
GRID     1541    1       9.66248-142.066 .925727 1
GRID     1542    1       9.72241-139.842 .937353 1
GRID     1543    1       9.43438-138.349 .882157 1
GRID     1544    1       9.7968 -137.648 .951889 1
GRID     1545    1       9.51866-136.102 .898127 1
GRID     1546    1       9.15316-136.764 .829921 1
GRID     1547    1       9.24785-134.465 .847326 1
GRID     1548    1       8.87939-135.079 .780633 1
GRID     1549    1       8.78899-137.48  .764699 1
GRID     1550    1       8.51204-135.746 .716928 1
GRID     1551    1       8.42632-138.259 .702459 1
GRID     1552    1       8.71433-139.927 .751668 1
GRID     1553    1       8.35711-140.817 .690887 1
GRID     1554    1       8.65582-142.411 .741531 1
GRID     1555    1       9.00926-141.487 .803822 1
GRID     1556    1       8.96078-143.897 .795126 1
GRID     1557    1       9.31045-142.947 .858934 1
GRID     1558    1       10.4772-130.893 1.09019 1
GRID     1559    1       10.608 -128.948 1.1179  1
GRID     1560    1       10.3727-127.311 1.06833 1
GRID     1561    1       10.2318-129.28  1.03919 1
GRID     1562    1       9.99488-127.589 .991158 1
GRID     1563    1       9.8559 -129.637 .963522 1
GRID     1564    1       10.1033-131.302 1.01299 1
GRID     1565    1       9.72987-131.742 .938806 1
GRID     1566    1       9.98761-133.373 .989702 1
GRID     1567    1       10.3587-132.885 1.06542 1
GRID     1568    1       10.253 -134.921 1.04356 1
GRID     1569    1       10.6217-134.392 1.12082 1
GRID     1570    1       9.66248-157.934 .925727 1
GRID     1571    1       9.31045-157.053 .858931 1
GRID     1572    1       8.96078-156.103 .795126 1
GRID     1573    1       9.9    -150.    .972245 1
GRID     1574    1       10.2318-151.067 1.03919 1
GRID     1575    1       10.5669-152.067 1.10915 1
GRID     1576    1       10.56  -150.    1.10769 1
GRID     1577    1       10.2318-148.933 1.03919 1
GRID     1578    1       10.5669-147.933 1.10915 1
GRID     1579    1       10.246 -146.802 1.04211 1
GRID     1580    1       9.90733-147.796 .973701 1
GRID     1581    1       9.92929-145.598 .978066 1
GRID     1582    1       9.58705-146.582 .911197 1
GRID     1583    1       9.5719 -148.86  .908295 1
GRID     1584    1       9.24785-147.639 .847326 1
GRID     1585    1       9.24   -150.    .845873 1
GRID     1586    1       9.5719 -151.141 .908295 1
GRID     1587    1       9.24785-152.362 .847326 1
GRID     1588    1       9.58705-153.418 .911201 1
GRID     1589    1       9.90733-152.204 .973701 1
GRID     1590    1       9.92929-154.402 .978063 1
GRID     1591    1       10.246 -153.198 1.04211 1
GRID     1592    1       10.4425-138.422 1.0829  1
GRID     1593    1       10.3727-140.485 1.06833 1
GRID     1594    1       10.6694-141.787 1.13103 1
GRID     1595    1       10.3166-142.572 1.05667 1
GRID     1596    1       10.6217-143.822 1.12082 1
GRID     1597    1       10.4841-178.196 1.09165 1
GRID     1598    1       10.5735-176.423 1.11055 1
GRID     1599    1       10.608 -171.052 1.1179  1
GRID     1600    1       10.3727-159.515 1.06833 1
GRID     1601    1       10.6694-158.213 1.13103 1
GRID     1602    1       10.3166-157.428 1.05667 1
GRID     1603    1       10.6217-156.178 1.12082 1
GRID     1604    1       11.    -178.036 1.20305 1
GRID     1605    1       11.    -121.964 1.20306 1
GRID     1606    1       11.    -120.    1.20306 1
GRID     1607    1       11.    -123.492 1.20306 1
GRID     1608    1       11.    -125.238 1.20306 1
GRID     1609    1       11.    -127.014 1.20306 1
GRID     1610    1       11.    -128.79  1.20306 1
GRID     1611    1       11.    -130.566 1.20306 1
GRID     1612    1       11.    -132.342 1.20306 1
GRID     1613    1       11.    -134.118 1.20306 1
GRID     1614    1       11.    -135.894 1.20306 1
GRID     1615    1       11.    -137.71  1.20306 1
GRID     1616    1       11.    -139.526 1.20306 1
GRID     1617    1       11.    -141.342 1.20306 1
GRID     1618    1       11.    -143.158 1.20306 1
GRID     1619    1       11.    -144.974 1.20306 1
GRID     1620    1       11.    -146.789 1.20306 1
GRID     1621    1       11.    -149.    1.20306 1
GRID     1622    1       11.    -151.    1.20306 1
GRID     1623    1       11.    -153.211 1.20306 1
GRID     1624    1       11.    -155.027 1.20306 1
GRID     1625    1       11.    -156.842 1.20306 1
GRID     1626    1       11.    -158.658 1.20306 1
GRID     1627    1       11.    -160.474 1.20306 1
GRID     1628    1       11.    -164.106 1.20307 1
GRID     1629    1       11.    -165.882 1.20307 1
GRID     1630    1       11.    -167.658 1.20306 1
GRID     1631    1       11.    -169.434 1.20306 1
GRID     1632    1       11.    -171.21  1.20306 1
GRID     1633    1       11.    -172.986 1.20306 1
GRID     1634    1       11.    -174.762 1.20307 1
GRID     1635    1       11.    -176.508 1.20306 1
GRID     1636    1       4.3945 -64.3066 .190093 1
GRID     1637    1       4.24321-68.9483 .177207 1
GRID     1638    1       4.1217 -73.8979 .167188 1
GRID     1639    1       3.75292-75.2953 .138569 1
GRID     1640    1       3.38686-76.9961 .112826 1
GRID     1641    1       3.38686-103.004 .112826 1
GRID     1642    1       3.75292-104.705 .138569 1
GRID     1643    1       4.1217 -106.102 .167188 1
GRID     1644    1       4.24321-111.052 .177207 1
GRID     1645    1       4.3945 -115.693 .190093 1
GRID     1646    1       4.3945 -77.4802 .190093 1
GRID     1647    1       4.68244-80.633  .215876 1
GRID     1648    1       4.98289-83.4132 .244537 1
GRID     1649    1       4.95367-87.7958 .241671 1
GRID     1650    1       4.95367-92.2042 .241671 1
GRID     1651    1       4.98289-96.5868 .244537 1
GRID     1652    1       4.68244-99.367  .215876 1
GRID     1653    1       4.3945 -102.52  .190093 1
GRID     1654    1       6.23808-72.2164 .383777 1
GRID     1655    1       6.13244-75.6084 .370843 1
GRID     1656    1       6.049  -79.1066 .360784 1
GRID     1657    1       5.69031-80.3626 .319134 1
GRID     1658    1       5.33472-81.7868 .280387 1
GRID     1659    1       5.33472-98.2132 .280387 1
GRID     1660    1       5.69031-99.6374 .319134 1
GRID     1661    1       6.049  -100.893 .360784 1
GRID     1662    1       6.13244-104.392 .370843 1
GRID     1663    1       6.23808-107.784 .383777 1
GRID     1664    1       6.36481-111.052 .399592 1
GRID     1665    1       6.13244-113.822 .370843 1
GRID     1666    1       5.91551-116.802 .344981 1
GRID     1667    1       6.34196-81.3609 .396717 1
GRID     1668    1       6.64385-83.4132 .435552 1
GRID     1669    1       6.95353-85.285  .477299 1
GRID     1670    1       6.93262-88.4252 .474417 1
GRID     1671    1       6.93262-91.5748 .474417 1
GRID     1672    1       6.95353-94.715  .477299 1
GRID     1673    1       6.64385-96.5868 .435552 1
GRID     1674    1       6.34196-98.6391 .396717 1
GRID     1675    1       8.14594-76.4738 .65619  1
GRID     1676    1       8.06533-79.1066 .643183 1
GRID     1677    1       8.00207-81.7868 .63307  1
GRID     1678    1       7.64955-82.8462 .578207 1
GRID     1679    1       7.29989-84.0075 .526286 1
GRID     1680    1       9.76711-65.8175 .946074 1
GRID     1681    1       9.6173 -67.8889 .917009 1
GRID     1682    1       9.48044-70.0229 .890865 1
GRID     1683    1       9.35712-72.2164 .86764  1
GRID     1684    1       8.61378-73.2891 .734294 1
GRID     1685    1       10.5256-65.397  1.1004  1
GRID     1686    1       10.1463-65.5994 1.02172 1
GRID     1687    1       6.74148-111.556 .448504 1
GRID     1688    1       7.11862-112.006 .500346 1
GRID     1689    1       7.49616-112.411 .555124 1
GRID     1690    1       7.64955-115.05  .578207 1
GRID     1691    1       7.81852-117.581 .604187 1
GRID     1692    1       7.29989-95.9926 .526286 1
GRID     1693    1       7.64955-97.1538 .578207 1
GRID     1694    1       8.00207-98.2132 .63307  1
GRID     1695    1       8.06533-100.893 .643183 1
GRID     1696    1       8.14594-103.526 .65619  1
GRID     1697    1       8.2434 -106.102 .67209  1
GRID     1698    1       7.98391-108.073 .630182 1
GRID     1699    1       7.73449-110.174 .591196 1
GRID     1700    1       8.30482-83.4132 .682212 1
GRID     1701    1       8.61378-84.9241 .734294 1
GRID     1702    1       8.92831-86.3295 .789329 1
GRID     1703    1       8.91204-88.775  .78643  1
GRID     1704    1       8.91204-91.225  .78643  1
GRID     1705    1       8.92831-93.6705 .789329 1
GRID     1706    1       8.61378-95.0759 .734294 1
GRID     1707    1       8.30482-96.5868 .682212 1
GRID     1708    1       9.6173 -73.8979 .917009 1
GRID     1709    1       9.88532-75.4895 .969339 1
GRID     1710    1       10.1606-76.9961 1.02463 1
GRID     1711    1       10.0817-79.1066 1.00862 1
GRID     1712    1       10.0167-81.2475 .995523 1
GRID     1713    1       9.96578-83.4132 .985337 1
GRID     1714    1       9.6173 -84.3153 .917009 1
GRID     1715    1       9.27138-85.285  .851678 1
GRID     1716    1       10.5256-76.3898 1.1004  1
GRID     1717    1       8.61378-106.711 .734294 1
GRID     1718    1       8.98505-107.27  .799473 1
GRID     1719    1       9.35712-107.784 .86764  1
GRID     1720    1       9.48044-109.977 .890865 1
GRID     1721    1       9.6173 -112.111 .917009 1
GRID     1722    1       9.76711-114.183 .946074 1
GRID     1723    1       9.54912-116.037 .903936 1
GRID     1724    1       9.34158-117.976 .864737 1
GRID     1725    1       9.27138-94.715  .851678 1
GRID     1726    1       9.6173 -95.6847 .917009 1
GRID     1727    1       9.96578-96.5868 .985337 1
GRID     1728    1       10.0167-98.7525 .995523 1
GRID     1729    1       10.0817-100.893 1.00862 1
GRID     1730    1       10.1606-103.004 1.02463 1
GRID     1731    1       9.88532-104.511 .969339 1
GRID     1732    1       9.6173 -106.102 .917009 1
GRID     1733    1       10.2743-84.6799 1.04793 1
GRID     1734    1       10.5875-85.8722 1.11352 1
GRID     1735    1       10.5875-94.1278 1.11352 1
GRID     1736    1       10.2743-95.3201 1.04793 1
GRID     1737    1       10.1463-114.401 1.02172 1
GRID     1738    1       10.5256-114.603 1.1004  1
GRID     1739    1       10.5256-103.61  1.1004  1
GRID     1740    1       2.925  -80.     .084128 1
GRID     1741    1       2.925  -100.    .084128 1
GRID     1742    1       2.925  -113.333 .084128 1
GRID     1743    1       2.925  -106.666 .084128 1
GRID     1744    1       2.925  -93.3332 .084128 1
GRID     1745    1       2.925  -86.6664 .084128 1
GRID     1746    1       2.925  -73.3332 .084131 1
GRID     1747    1       2.925  -66.6664 .084131 1
GRID     1748    1       2.925  -60.     .084128 1
GRID     1749    1       10.845 -65.2376 1.169   1
GRID     1750    1       10.845 -75.894  1.169   1
GRID     1751    1       10.845 -86.7894 1.169   1
GRID     1752    1       10.845 -93.2106 1.169   1
GRID     1753    1       10.845 -104.106 1.169   1
GRID     1754    1       10.845 -114.762 1.169   1
GRID     1755    1       10.845 -61.9641 1.169   1
GRID     1756    1       10.845 -60.     1.169   1
GRID     1757    1       10.845 -63.4917 1.169   1
GRID     1758    1       10.845 -67.0137 1.169   1
GRID     1759    1       10.845 -68.7897 1.16899 1
GRID     1760    1       10.845 -70.5658 1.169   1
GRID     1761    1       10.845 -72.3419 1.16899 1
GRID     1762    1       10.845 -74.118  1.16899 1
GRID     1763    1       10.845 -77.7099 1.16901 1
GRID     1764    1       10.845 -79.5258 1.169   1
GRID     1765    1       10.845 -81.3417 1.169   1
GRID     1766    1       10.845 -83.1576 1.16901 1
GRID     1767    1       10.845 -84.9735 1.169   1
GRID     1768    1       10.845 -89.     1.16899 1
GRID     1769    1       10.845 -91.     1.16899 1
GRID     1770    1       10.845 -95.0265 1.169   1
GRID     1771    1       10.845 -96.8424 1.16901 1
GRID     1772    1       10.845 -98.6583 1.169   1
GRID     1773    1       10.845 -100.474 1.169   1
GRID     1774    1       10.845 -102.29  1.16901 1
GRID     1775    1       10.845 -105.882 1.16899 1
GRID     1776    1       10.845 -107.658 1.16899 1
GRID     1777    1       10.845 -109.434 1.169   1
GRID     1778    1       10.845 -111.21  1.16899 1
GRID     1779    1       10.845 -112.986 1.169   1
GRID     1780    1       10.845 -116.508 1.169   1
GRID     1781    1       10.845 -118.036 1.169   1
GRID     1782    1       3.42946-60.     .115686 1
GRID     1783    1       3.635  -65.2087 .129988 1
GRID     1784    1       3.86725-69.8264 .147154 1
GRID     1785    1       4.01462-64.715  .158601 1
GRID     1786    1       3.81051-60.     .142861 1
GRID     1787    1       4.19156-60.     .172912 1
GRID     1788    1       3.2557 -65.8175 .104248 1
GRID     1789    1       3.11904-72.2164 .095673 1
GRID     1790    1       3.49239-70.8934 .119975 1
GRID     1791    1       4.01462-115.285 .158601 1
GRID     1792    1       3.635  -114.791 .129988 1
GRID     1793    1       3.86725-110.174 .147154 1
GRID     1794    1       3.49239-109.107 .119975 1
GRID     1795    1       3.2557 -114.183 .104248 1
GRID     1796    1       3.11904-107.784 .095673 1
GRID     1797    1       3.96   -90.     .154306 1
GRID     1798    1       4.29423-92.5429 .181502 1
GRID     1799    1       4.63569-94.715  .211577 1
GRID     1800    1       4.62   -90.     .210146 1
GRID     1801    1       4.29423-87.4571 .181502 1
GRID     1802    1       4.63569-85.285  .211577 1
GRID     1803    1       4.32791-82.4109 .184366 1
GRID     1804    1       3.97829-84.5036 .155738 1
GRID     1805    1       4.03267-79.1066 .160033 1
GRID     1806    1       3.67472-81.0517 .132849 1
GRID     1807    1       3.635  -86.9955 .129988 1
GRID     1808    1       3.32193-83.4132 .108537 1
GRID     1809    1       3.3    -90.     .107108 1
GRID     1810    1       3.635  -93.0045 .129988 1
GRID     1811    1       3.32193-96.5868 .108537 1
GRID     1812    1       3.67472-98.9483 .132849 1
GRID     1813    1       3.97829-95.4964 .155738 1
GRID     1814    1       4.03267-100.893 .160033 1
GRID     1815    1       4.32791-97.5891 .184366 1
GRID     1816    1       5.23859-70.8934 .270347 1
GRID     1817    1       5.4956 -73.8979 .297604 1
GRID     1818    1       5.76635-76.6272 .327749 1
GRID     1819    1       5.86621-73.0039 .339236 1
GRID     1820    1       5.61323-70.1583 .31052  1
GRID     1821    1       4.99744-67.5891 .245972 1
GRID     1822    1       4.62   -68.2132 .210146 1
GRID     1823    1       4.86494-71.7415 .233071 1
GRID     1824    1       4.49253-72.7305 .198686 1
GRID     1825    1       4.75933-76.1021 .22304  1
GRID     1826    1       5.12652-74.9209 .258875 1
GRID     1827    1       5.04083-79.1066 .250273 1
GRID     1828    1       5.40233-77.7837 .287561 1
GRID     1829    1       5.23859-109.107 .270347 1
GRID     1830    1       5.61323-109.842 .31052  1
GRID     1831    1       5.98869-110.485 .353602 1
GRID     1832    1       5.86621-106.996 .339236 1
GRID     1833    1       5.4956 -106.102 .297604 1
GRID     1834    1       5.76635-103.373 .327749 1
GRID     1835    1       5.40233-102.216 .287561 1
GRID     1836    1       5.12652-105.079 .258875 1
GRID     1837    1       5.04083-100.893 .250273 1
GRID     1838    1       4.75933-103.898 .22304  1
GRID     1839    1       4.86494-108.259 .233071 1
GRID     1840    1       4.49253-107.27  .198686 1
GRID     1841    1       4.62   -111.787 .210146 1
GRID     1842    1       4.99744-112.411 .245972 1
GRID     1843    1       4.77456-116.037 .224472 1
GRID     1844    1       5.15477-116.33  .261742 1
GRID     1845    1       5.37539-112.947 .284692 1
GRID     1846    1       5.53509-116.582 .301909 1
GRID     1847    1       5.75375-113.413 .326311 1
GRID     1848    1       5.94   -90.     .347854 1
GRID     1849    1       6.27289-91.7405 .38809  1
GRID     1850    1       6.61099-93.3043 .431235 1
GRID     1851    1       6.6    -90.     .429798 1
GRID     1852    1       6.27289-88.2595 .38809  1
GRID     1853    1       6.61099-86.6957 .431235 1
GRID     1854    1       6.296  -84.7913 .390966 1
GRID     1855    1       5.95221-86.3295 .349291 1
GRID     1856    1       5.98869-82.6889 .353602 1
GRID     1857    1       5.63904-84.1825 .313393 1
GRID     1858    1       5.61324-88.0549 .31052  1
GRID     1859    1       5.29373-85.8722 .276083 1
GRID     1860    1       5.28   -90.     .274648 1
GRID     1861    1       5.61323-91.9451 .31052  1
GRID     1862    1       5.29373-94.1278 .276083 1
GRID     1863    1       5.63904-95.8175 .313393 1
GRID     1864    1       5.95221-93.6705 .349291 1
GRID     1865    1       5.98869-97.3111 .353602 1
GRID     1866    1       6.296  -95.2087 .390966 1
GRID     1867    1       7.13899-76.1021 .503227 1
GRID     1868    1       7.41827-78.1432 .543588 1
GRID     1869    1       7.70628-80.034  .586867 1
GRID     1870    1       7.78129-77.2695 .598415 1
GRID     1871    1       7.50584-75.2953 .556568 1
GRID     1872    1       6.8695 -73.8979 .465778 1
GRID     1873    1       6.50025-74.7047 .416849 1
GRID     1874    1       6.77371-76.9961 .452823 1
GRID     1875    1       6.41027-77.9917 .405343 1
GRID     1876    1       6.69827-80.1736 .442747 1
GRID     1877    1       7.05717-79.1066 .491701 1
GRID     1878    1       6.99517-82.1729 .483059 1
GRID     1879    1       7.34945-81.0517 .533493 1
GRID     1880    1       10.2884-60.     1.05085 1
GRID     1881    1       10.4841-61.8038 1.09165 1
GRID     1882    1       10.5735-63.5767 1.11055 1
GRID     1883    1       10.1033-61.8718 1.01299 1
GRID     1884    1       9.92929-63.8113 .978066 1
GRID     1885    1       10.3095-63.6705 1.05522 1
GRID     1886    1       7.43782-117.457 .54647  1
GRID     1887    1       7.05717-117.32  .491701 1
GRID     1888    1       7.26999-114.791 .521961 1
GRID     1889    1       6.8906 -114.504 .468657 1
GRID     1890    1       6.67656-117.167 .439868 1
GRID     1891    1       6.51141-114.183 .418289 1
GRID     1892    1       6.296  -116.996 .390966 1
GRID     1893    1       7.13899-103.898 .503227 1
GRID     1894    1       7.50584-104.705 .556568 1
GRID     1895    1       7.87403-105.436 .61285  1
GRID     1896    1       7.78129-102.731 .598415 1
GRID     1897    1       7.41827-101.857 .543588 1
GRID     1898    1       7.70628-99.966  .586867 1
GRID     1899    1       7.34945-98.9483 .533493 1
GRID     1900    1       7.05717-100.893 .491701 1
GRID     1901    1       6.99517-97.8271 .483059 1
GRID     1902    1       6.69827-99.8264 .442747 1
GRID     1903    1       6.77371-103.004 .452823 1
GRID     1904    1       6.41027-102.008 .405343 1
GRID     1905    1       6.50025-105.295 .416849 1
GRID     1906    1       6.8695 -106.102 .465778 1
GRID     1907    1       6.61099-108.483 .431235 1
GRID     1908    1       6.98478-109.107 .481618 1
GRID     1909    1       7.23997-106.826 .517638 1
GRID     1910    1       7.35932-109.667 .534934 1
GRID     1911    1       7.61149-107.48  .572435 1
GRID     1912    1       7.92   -90.     .620072 1
GRID     1913    1       8.2522 -91.323  .673537 1
GRID     1914    1       8.58846-92.5429 .72995  1
GRID     1915    1       8.58   -90.     .728503 1
GRID     1916    1       8.2522 -88.677  .673537 1
GRID     1917    1       8.58846-87.4571 .72995  1
GRID     1918    1       8.26978-86.0368 .676428 1
GRID     1919    1       7.92916-87.2455 .621516 1
GRID     1920    1       7.95658-84.5036 .625848 1
GRID     1921    1       7.61149-85.6934 .572435 1
GRID     1922    1       7.59239-88.5621 .56955  1
GRID     1923    1       7.26999-86.9955 .521961 1
GRID     1924    1       7.26   -90.     .52052  1
GRID     1925    1       7.59239-91.4379 .56955  1
GRID     1926    1       7.26999-93.0045 .521961 1
GRID     1927    1       7.61149-94.3066 .572435 1
GRID     1928    1       7.92916-92.7545 .621516 1
GRID     1929    1       7.95658-95.4964 .625848 1
GRID     1930    1       8.26978-93.9632 .676428 1
GRID     1931    1       9.0735 -79.1066 .815419 1
GRID     1932    1       9.36487-80.633  .869093 1
GRID     1933    1       9.66248-82.0663 .925727 1
GRID     1934    1       9.72241-79.8417 .937353 1
GRID     1935    1       9.43438-78.3491 .882157 1
GRID     1936    1       9.7968 -77.6475 .951889 1
GRID     1937    1       9.51866-76.1021 .898127 1
GRID     1938    1       9.15316-76.7637 .829918 1
GRID     1939    1       9.24785-74.465  .847326 1
GRID     1940    1       8.87939-75.0791 .780636 1
GRID     1941    1       8.78899-77.4802 .764699 1
GRID     1942    1       8.51204-75.7464 .716928 1
GRID     1943    1       8.42632-78.2585 .702459 1
GRID     1944    1       8.71433-79.9267 .751665 1
GRID     1945    1       8.3571 -80.8171 .690887 1
GRID     1946    1       8.65582-82.4109 .741531 1
GRID     1947    1       9.00926-81.487  .803822 1
GRID     1948    1       8.96078-83.8973 .795126 1
GRID     1949    1       9.31045-82.9473 .858931 1
GRID     1950    1       10.4772-70.8934 1.09019 1
GRID     1951    1       10.608 -68.9483 1.1179  1
GRID     1952    1       10.3727-67.3111 1.06833 1
GRID     1953    1       10.2318-69.2802 1.03919 1
GRID     1954    1       9.99488-67.5891 .991158 1
GRID     1955    1       9.8559 -69.6374 .963522 1
GRID     1956    1       10.1033-71.3018 1.01299 1
GRID     1957    1       9.72987-71.7415 .938806 1
GRID     1958    1       9.98761-73.3728 .989702 1
GRID     1959    1       10.3587-72.8854 1.06542 1
GRID     1960    1       10.253 -74.9209 1.04356 1
GRID     1961    1       10.6217-74.3916 1.12082 1
GRID     1962    1       8.63062-113.413 .737187 1
GRID     1963    1       9.00926-113.691 .803822 1
GRID     1964    1       9.3881 -113.947 .873445 1
GRID     1965    1       9.24   -111.787 .845876 1
GRID     1966    1       8.86303-111.435 .777736 1
GRID     1967    1       9.10545-109.56  .821218 1
GRID     1968    1       8.73098-109.107 .754562 1
GRID     1969    1       8.48641-111.052 .712587 1
GRID     1970    1       8.3571 -108.613 .690887 1
GRID     1971    1       8.11022-110.633 .650408 1
GRID     1972    1       8.2522 -113.11  .673537 1
GRID     1973    1       7.87403-112.777 .61285  1
GRID     1974    1       8.02925-115.285 .637404 1
GRID     1975    1       8.40907-115.498 .699566 1
GRID     1976    1       8.19924-117.693 .664862 1
GRID     1977    1       8.58   -117.796 .728503 1
GRID     1978    1       8.78899-115.693 .764699 1
GRID     1979    1       8.96078-117.89  .795126 1
GRID     1980    1       9.16901-115.872 .832821 1
GRID     1981    1       9.0735 -100.893 .815419 1
GRID     1982    1       9.43438-101.651 .882157 1
GRID     1983    1       9.7968 -102.353 .951889 1
GRID     1984    1       9.72241-100.158 .937353 1
GRID     1985    1       9.36487-99.367  .869093 1
GRID     1986    1       9.66248-97.9337 .925727 1
GRID     1987    1       9.31045-97.0527 .858931 1
GRID     1988    1       9.00926-98.513  .803822 1
GRID     1989    1       8.96078-96.1027 .795126 1
GRID     1990    1       8.65582-97.5891 .741531 1
GRID     1991    1       8.71433-100.073 .751665 1
GRID     1992    1       8.3571 -99.1829 .690887 1
GRID     1993    1       8.42632-101.742 .702459 1
GRID     1994    1       8.78899-102.52  .764699 1
GRID     1995    1       8.51204-104.254 .716928 1
GRID     1996    1       8.87939-104.921 .780636 1
GRID     1997    1       9.15316-103.236 .829918 1
GRID     1998    1       9.24785-105.535 .847326 1
GRID     1999    1       9.51866-103.898 .898127 1
GRID     2000    1       9.9    -90.     .972245 1
GRID     2001    1       10.2318-91.067  1.03919 1
GRID     2002    1       10.5669-92.0666 1.10915 1
GRID     2003    1       10.56  -90.     1.10769 1
GRID     2004    1       10.2318-88.933  1.03919 1
GRID     2005    1       10.5669-87.9334 1.10915 1
GRID     2006    1       10.246 -86.8021 1.04211 1
GRID     2007    1       9.90733-87.7958 .973701 1
GRID     2008    1       9.92929-85.5981 .978066 1
GRID     2009    1       9.58705-86.582  .911201 1
GRID     2010    1       9.5719 -88.8595 .908295 1
GRID     2011    1       9.24785-87.6385 .847326 1
GRID     2012    1       9.24   -90.     .845876 1
GRID     2013    1       9.5719 -91.1405 .908295 1
GRID     2014    1       9.24785-92.3615 .847326 1
GRID     2015    1       9.58705-93.418  .911201 1
GRID     2016    1       9.90733-92.2042 .973701 1
GRID     2017    1       9.92929-94.402  .978066 1
GRID     2018    1       10.246 -93.1979 1.04211 1
GRID     2019    1       10.4425-78.4222 1.0829  1
GRID     2020    1       10.3727-80.4847 1.06833 1
GRID     2021    1       10.6694-81.7868 1.13103 1
GRID     2022    1       10.3166-82.5723 1.05667 1
GRID     2023    1       10.6217-83.8216 1.12082 1
GRID     2024    1       10.4841-118.196 1.09165 1
GRID     2025    1       10.5735-116.423 1.11055 1
GRID     2026    1       9.72241-118.055 .937353 1
GRID     2027    1       10.1033-118.128 1.01299 1
GRID     2028    1       9.92929-116.189 .978066 1
GRID     2029    1       10.3095-116.33  1.05522 1
GRID     2030    1       10.4772-109.107 1.09019 1
GRID     2031    1       10.608 -111.052 1.1179  1
GRID     2032    1       10.3727-112.689 1.06833 1
GRID     2033    1       10.2318-110.72  1.03919 1
GRID     2034    1       9.99488-112.411 .991158 1
GRID     2035    1       9.8559 -110.363 .963522 1
GRID     2036    1       10.1033-108.698 1.01299 1
GRID     2037    1       9.72987-108.259 .938806 1
GRID     2038    1       9.98761-106.627 .989702 1
GRID     2039    1       10.3587-107.115 1.06542 1
GRID     2040    1       10.253 -105.079 1.04356 1
GRID     2041    1       10.6217-105.608 1.12082 1
GRID     2042    1       10.4425-101.578 1.0829  1
GRID     2043    1       10.3727-99.5153 1.06833 1
GRID     2044    1       10.6694-98.2132 1.13103 1
GRID     2045    1       10.3166-97.4277 1.05667 1
GRID     2046    1       10.6217-96.1784 1.12082 1
GRID     2047    1       11.    -118.036 1.20306 1
GRID     2048    1       11.    -61.9641 1.20306 1
GRID     2049    1       11.    -60.     1.20306 1
GRID     2050    1       11.    -63.4917 1.20306 1
GRID     2051    1       11.    -65.2376 1.20306 1
GRID     2052    1       11.    -67.0137 1.20306 1
GRID     2053    1       11.    -68.7897 1.20305 1
GRID     2054    1       11.    -70.5658 1.20307 1
GRID     2055    1       11.    -72.3419 1.20306 1
GRID     2056    1       11.    -74.118  1.20306 1
GRID     2057    1       11.    -75.894  1.20306 1
GRID     2058    1       11.    -77.7099 1.20306 1
GRID     2059    1       11.    -79.5258 1.20306 1
GRID     2060    1       11.    -81.3417 1.20305 1
GRID     2061    1       11.    -83.1576 1.20307 1
GRID     2062    1       11.    -84.9735 1.20306 1
GRID     2063    1       11.    -86.7894 1.20305 1
GRID     2064    1       11.    -89.     1.20305 1
GRID     2065    1       11.    -91.     1.20305 1
GRID     2066    1       11.    -93.2106 1.20305 1
GRID     2067    1       11.    -95.0265 1.20306 1
GRID     2068    1       11.    -96.8424 1.20307 1
GRID     2069    1       11.    -98.6583 1.20305 1
GRID     2070    1       11.    -100.474 1.20306 1
GRID     2071    1       11.    -102.29  1.20306 1
GRID     2072    1       11.    -104.106 1.20306 1
GRID     2073    1       11.    -105.882 1.20306 1
GRID     2074    1       11.    -107.658 1.20306 1
GRID     2075    1       11.    -109.434 1.20307 1
GRID     2076    1       11.    -111.21  1.20305 1
GRID     2077    1       11.    -112.986 1.20306 1
GRID     2078    1       11.    -114.762 1.20306 1
GRID     2079    1       11.    -116.508 1.20306 1
GRID     2080    1       4.3945 -4.30662 .190093 1
GRID     2081    1       4.24321-8.94828 .177207 1
GRID     2082    1       4.1217 -13.8979 .167188 1
GRID     2083    1       3.75292-15.2953 .138569 1
GRID     2084    1       3.38686-16.9961 .112826 1
GRID     2085    1       3.38686-43.0039 .112826 1
GRID     2086    1       3.75292-44.7047 .138569 1
GRID     2087    1       4.1217 -46.1021 .167188 1
GRID     2088    1       4.24321-51.0517 .177207 1
GRID     2089    1       4.3945 -55.6934 .190093 1
GRID     2090    1       4.3945 -17.4802 .190093 1
GRID     2091    1       4.68244-20.633  .215876 1
GRID     2092    1       4.98289-23.4132 .244537 1
GRID     2093    1       4.95367-27.7958 .241671 1
GRID     2094    1       4.95367-32.2042 .241671 1
GRID     2095    1       4.98289-36.5868 .244537 1
GRID     2096    1       4.68244-39.367  .215876 1
GRID     2097    1       4.3945 -42.5198 .190093 1
GRID     2098    1       5.91551-3.19794 .344981 1
GRID     2099    1       6.13244-6.17839 .370843 1
GRID     2100    1       6.36481-8.94828 .399592 1
GRID     2101    1       6.23808-12.2164 .383777 1
GRID     2102    1       6.13244-15.6084 .370843 1
GRID     2103    1       6.049  -19.1066 .360784 1
GRID     2104    1       5.69031-20.3626 .319134 1
GRID     2105    1       5.33472-21.7868 .280387 1
GRID     2106    1       7.81852-2.41903 .604187 1
GRID     2107    1       7.64955-4.94961 .578207 1
GRID     2108    1       7.49616-7.58909 .555124 1
GRID     2109    1       7.11862-7.99414 .500346 1
GRID     2110    1       6.74148-8.44454 .448504 1
GRID     2111    1       5.33472-38.2132 .280387 1
GRID     2112    1       5.69031-39.6374 .319134 1
GRID     2113    1       6.34196-21.3609 .396717 1
GRID     2114    1       6.64386-23.4132 .435552 1
GRID     2115    1       6.95353-25.285  .477299 1
GRID     2116    1       6.93262-28.4252 .474417 1
GRID     2117    1       6.93262-31.5748 .474417 1
GRID     2118    1       7.73449-9.82643 .591196 1
GRID     2119    1       7.98391-11.927  .630182 1
GRID     2120    1       8.2434 -13.8979 .67209  1
GRID     2121    1       8.14594-16.4738 .65619  1
GRID     2122    1       8.06533-19.1066 .643183 1
GRID     2123    1       8.00207-21.7868 .633073 1
GRID     2124    1       7.64955-22.8462 .578207 1
GRID     2125    1       7.29989-24.0075 .526286 1
GRID     2126    1       9.34159-2.02445 .864737 1
GRID     2127    1       9.54912-3.96324 .903936 1
GRID     2128    1       9.76711-5.81753 .946074 1
GRID     2129    1       9.6173 -7.88891 .917009 1
GRID     2130    1       9.48044-10.0229 .890865 1
GRID     2131    1       9.35712-12.2164 .86764  1
GRID     2132    1       8.98506-12.7305 .799473 1
GRID     2133    1       8.61378-13.2891 .734294 1
GRID     2134    1       10.5256-5.39703 1.1004  1
GRID     2135    1       10.1463-5.59942 1.02173 1
GRID     2136    1       8.30482-23.4132 .682209 1
GRID     2137    1       8.61378-24.9241 .734294 1
GRID     2138    1       8.92831-26.3295 .789329 1
GRID     2139    1       8.91204-28.775  .78643  1
GRID     2140    1       8.91204-31.225  .78643  1
GRID     2141    1       8.92831-33.6705 .789329 1
GRID     2142    1       8.61378-35.0759 .734294 1
GRID     2143    1       9.6173 -13.8979 .917009 1
GRID     2144    1       9.88532-15.4896 .969339 1
GRID     2145    1       10.1606-16.9961 1.02463 1
GRID     2146    1       10.0817-19.1066 1.00862 1
GRID     2147    1       10.0167-21.2475 .995523 1
GRID     2148    1       9.96578-23.4132 .985337 1
GRID     2149    1       9.6173 -24.3153 .917012 1
GRID     2150    1       9.27138-25.285  .851678 1
GRID     2151    1       10.5256-16.3898 1.10041 1
GRID     2152    1       9.27138-34.715  .851678 1
GRID     2153    1       9.6173 -35.6847 .917009 1
GRID     2154    1       9.96578-36.5868 .98534  1
GRID     2155    1       10.0167-38.7525 .995523 1
GRID     2156    1       10.0817-40.8934 1.00862 1
GRID     2157    1       10.1606-43.0039 1.02463 1
GRID     2158    1       9.88532-44.5105 .969339 1
GRID     2159    1       10.2743-24.6799 1.04793 1
GRID     2160    1       10.5875-25.8722 1.11352 1
GRID     2161    1       10.5875-34.1278 1.11352 1
GRID     2162    1       10.2743-35.3201 1.04793 1
GRID     2163    1       10.1463-54.4006 1.02172 1
GRID     2164    1       10.5256-54.603  1.1004  1
GRID     2165    1       10.5256-43.6102 1.1004  1
GRID     2166    1       2.925  -20.     .084128 1
GRID     2167    1       2.925  -40.     .084128 1
GRID     2168    1       2.925  -53.3332 .084128 1
GRID     2169    1       2.925  -46.6664 .084131 1
GRID     2170    1       2.925  -33.3332 .084131 1
GRID     2171    1       2.925  -26.6664 .084128 1
GRID     2172    1       2.925  -13.3332 .084131 1
GRID     2173    1       2.925  -6.66639 .084128 1
GRID     2174    1       10.845 -5.23761 1.16899 1
GRID     2175    1       10.845 -15.894  1.169   1
GRID     2176    1       10.845 -26.7894 1.169   1
GRID     2177    1       10.845 -33.2106 1.169   1
GRID     2178    1       10.845 -44.106  1.169   1
GRID     2179    1       10.845 -54.7624 1.169   1
GRID     2180    1       10.845 -1.96408 1.16899 1
GRID     2181    1       10.845 -3.49173 1.16901 1
GRID     2182    1       10.845 -7.01366 1.16899 1
GRID     2183    1       10.845 -8.78973 1.16899 1
GRID     2184    1       10.845 -10.5658 1.16899 1
GRID     2185    1       10.845 -12.3419 1.16901 1
GRID     2186    1       10.845 -14.118  1.16899 1
GRID     2187    1       10.845 -17.7099 1.16899 1
GRID     2188    1       10.845 -19.5258 1.169   1
GRID     2189    1       10.845 -21.3417 1.16899 1
GRID     2190    1       10.845 -23.1576 1.169   1
GRID     2191    1       10.845 -24.9735 1.169   1
GRID     2192    1       10.845 -29.     1.169   1
GRID     2193    1       10.845 -31.     1.169   1
GRID     2194    1       10.845 -35.0265 1.169   1
GRID     2195    1       10.845 -36.8424 1.169   1
GRID     2196    1       10.845 -38.6583 1.169   1
GRID     2197    1       10.845 -40.4742 1.169   1
GRID     2198    1       10.845 -42.2901 1.169   1
GRID     2199    1       10.845 -45.882  1.169   1
GRID     2200    1       10.845 -47.6581 1.169   1
GRID     2201    1       10.845 -49.4342 1.169   1
GRID     2202    1       10.845 -51.2103 1.169   1
GRID     2203    1       10.845 -52.9863 1.169   1
GRID     2204    1       10.845 -56.5083 1.169   1
GRID     2205    1       10.845 -58.0359 1.169   1
GRID     2206    1       3.635  -5.20872 .129988 1
GRID     2207    1       3.86725-9.82643 .147154 1
GRID     2208    1       4.01462-4.71501 .158601 1
GRID     2209    1       3.2557 -5.81753 .104248 1
GRID     2210    1       3.11904-12.2164 .095673 1
GRID     2211    1       3.49239-10.8934 .119975 1
GRID     2212    1       4.01462-55.285  .158601 1
GRID     2213    1       3.635  -54.7913 .129988 1
GRID     2214    1       3.86725-50.1736 .147154 1
GRID     2215    1       3.49239-49.1066 .119975 1
GRID     2216    1       3.2557 -54.1825 .104248 1
GRID     2217    1       3.11904-47.7837 .095673 1
GRID     2218    1       3.96   -30.     .154306 1
GRID     2219    1       4.29423-32.5429 .181502 1
GRID     2220    1       4.63569-34.715  .211577 1
GRID     2221    1       4.62   -30.     .210146 1
GRID     2222    1       4.29423-27.4571 .181502 1
GRID     2223    1       4.63569-25.285  .211577 1
GRID     2224    1       4.32791-22.4109 .184366 1
GRID     2225    1       3.97829-24.5036 .155738 1
GRID     2226    1       4.03267-19.1066 .160033 1
GRID     2227    1       3.67472-21.0517 .132849 1
GRID     2228    1       3.635  -26.9955 .129988 1
GRID     2229    1       3.32193-23.4132 .108537 1
GRID     2230    1       3.3    -30.     .107108 1
GRID     2231    1       3.635  -33.0045 .129988 1
GRID     2232    1       3.32193-36.5868 .108537 1
GRID     2233    1       3.67473-38.9483 .132849 1
GRID     2234    1       3.97829-35.4964 .155738 1
GRID     2235    1       4.03267-40.8934 .160033 1
GRID     2236    1       4.32791-37.5891 .184366 1
GRID     2237    1       5.23859-10.8934 .270347 1
GRID     2238    1       5.4956 -13.8979 .297604 1
GRID     2239    1       5.76635-16.6272 .327749 1
GRID     2240    1       5.86621-13.0039 .339236 1
GRID     2241    1       5.61323-10.1583 .31052  1
GRID     2242    1       5.98869-9.51534 .353599 1
GRID     2243    1       5.75375-6.58678 .326311 1
GRID     2244    1       5.37539-7.05268 .284692 1
GRID     2245    1       5.53509-3.41799 .301909 1
GRID     2246    1       5.15477-3.6705  .261742 1
GRID     2247    1       4.99744-7.58909 .245972 1
GRID     2248    1       4.77456-3.96324 .224472 1
GRID     2249    1       4.62   -8.21321 .210146 1
GRID     2250    1       4.86494-11.7415 .233071 1
GRID     2251    1       4.49253-12.7305 .198686 1
GRID     2252    1       4.75933-16.1021 .22304  1
GRID     2253    1       5.12652-14.9209 .258875 1
GRID     2254    1       5.04083-19.1066 .250273 1
GRID     2255    1       5.40233-17.7837 .287561 1
GRID     2256    1       7.05717-2.68019 .491701 1
GRID     2257    1       7.26999-5.20872 .521961 1
GRID     2258    1       7.43782-2.54293 .546473 1
GRID     2259    1       6.296  -3.00449 .390966 1
GRID     2260    1       6.67656-2.8331  .439871 1
GRID     2261    1       6.51141-5.81753 .418289 1
GRID     2262    1       6.8906 -5.49637 .468657 1
GRID     2263    1       5.40233-42.2164 .287561 1
GRID     2264    1       5.12652-45.0791 .258875 1
GRID     2265    1       5.04083-40.8934 .25027  1
GRID     2266    1       4.75933-43.8979 .22304  1
GRID     2267    1       4.86494-48.2585 .233071 1
GRID     2268    1       4.49253-47.2695 .198686 1
GRID     2269    1       4.62   -51.7868 .210146 1
GRID     2270    1       5.94   -30.     .347854 1
GRID     2271    1       6.27289-31.7405 .38809  1
GRID     2272    1       6.61099-33.3043 .431235 1
GRID     2273    1       6.6    -30.     .429798 1
GRID     2274    1       6.27289-28.2595 .38809  1
GRID     2275    1       6.61099-26.6957 .431235 1
GRID     2276    1       6.296  -24.7913 .390966 1
GRID     2277    1       5.95221-26.3295 .349291 1
GRID     2278    1       5.98869-22.6889 .353599 1
GRID     2279    1       5.63904-24.1825 .313393 1
GRID     2280    1       5.61324-28.0549 .310523 1
GRID     2281    1       5.29373-25.8722 .276083 1
GRID     2282    1       5.28   -30.     .274648 1
GRID     2283    1       5.61324-31.9451 .31052  1
GRID     2284    1       5.29373-34.1278 .276083 1
GRID     2285    1       5.63904-35.8175 .313393 1
GRID     2286    1       5.95221-33.6705 .349291 1
GRID     2287    1       5.98869-37.3111 .353602 1
GRID     2288    1       6.296  -35.2087 .390966 1
GRID     2289    1       7.13899-16.1021 .503227 1
GRID     2290    1       7.41827-18.1432 .543588 1
GRID     2291    1       7.70628-20.034  .586867 1
GRID     2292    1       7.78129-17.2695 .598415 1
GRID     2293    1       7.50584-15.2954 .556568 1
GRID     2294    1       7.87403-14.5639 .61285  1
GRID     2295    1       7.61149-12.5198 .572435 1
GRID     2296    1       7.23997-13.1736 .517638 1
GRID     2297    1       7.35932-10.3327 .534934 1
GRID     2298    1       6.98478-10.8934 .481618 1
GRID     2299    1       6.8695 -13.8979 .465778 1
GRID     2300    1       6.61099-11.5175 .431235 1
GRID     2301    1       6.50025-14.7047 .416849 1
GRID     2302    1       6.77371-16.9961 .452823 1
GRID     2303    1       6.41027-17.9917 .405343 1
GRID     2304    1       6.69827-20.1736 .442747 1
GRID     2305    1       7.05717-19.1066 .491701 1
GRID     2306    1       6.99517-22.1729 .483059 1
GRID     2307    1       7.34945-21.0517 .533493 1
GRID     2308    1       8.63062-6.58678 .737187 1
GRID     2309    1       8.86303-8.56512 .777739 1
GRID     2310    1       9.10545-10.4403 .821218 1
GRID     2311    1       9.24   -8.21321 .845876 1
GRID     2312    1       9.00926-6.3088  .803822 1
GRID     2313    1       9.3881 -6.05325 .873445 1
GRID     2314    1       9.16901-4.12781 .832821 1
GRID     2315    1       8.78899-4.30662 .764699 1
GRID     2316    1       8.96078-2.11052 .795126 1
GRID     2317    1       8.58   -2.20423 .728503 1
GRID     2318    1       8.40907-4.50159 .699566 1
GRID     2319    1       8.19924-2.30664 .664862 1
GRID     2320    1       8.02925-4.715   .637404 1
GRID     2321    1       8.2522 -6.89026 .673537 1
GRID     2322    1       7.87403-7.2229  .61285  1
GRID     2323    1       8.11022-9.367   .650411 1
GRID     2324    1       8.48641-8.94828 .712587 1
GRID     2325    1       8.3571 -11.3871 .690887 1
GRID     2326    1       8.73098-10.8934 .754562 1
GRID     2327    1       10.4841-1.80376 1.09165 1
GRID     2328    1       10.5735-3.57669 1.11055 1
GRID     2329    1       9.72241-1.94512 .937353 1
GRID     2330    1       10.1033-1.87177 1.01299 1
GRID     2331    1       9.92929-3.81126 .978063 1
GRID     2332    1       10.3095-3.6705  1.05522 1
GRID     2333    1       8.2522 -31.323  .673537 1
GRID     2334    1       8.58846-32.5429 .72995  1
GRID     2335    1       8.58   -30.     .728503 1
GRID     2336    1       8.2522 -28.6771 .673537 1
GRID     2337    1       8.58846-27.4571 .72995  1
GRID     2338    1       8.26978-26.0368 .676428 1
GRID     2339    1       7.92916-27.2455 .621516 1
GRID     2340    1       7.95658-24.5036 .625848 1
GRID     2341    1       7.61149-25.6934 .572435 1
GRID     2342    1       7.59239-28.5621 .56955  1
GRID     2343    1       7.26999-26.9955 .521961 1
GRID     2344    1       7.26   -30.     .52052  1
GRID     2345    1       9.0735 -19.1066 .815419 1
GRID     2346    1       9.36487-20.633  .869093 1
GRID     2347    1       9.66248-22.0663 .925727 1
GRID     2348    1       9.72241-19.8417 .937353 1
GRID     2349    1       9.43438-18.3491 .882154 1
GRID     2350    1       9.7968 -17.6475 .951889 1
GRID     2351    1       9.51866-16.1021 .898127 1
GRID     2352    1       9.15316-16.7637 .829921 1
GRID     2353    1       9.24785-14.465  .847326 1
GRID     2354    1       8.87939-15.0791 .780636 1
GRID     2355    1       8.78899-17.4802 .764702 1
GRID     2356    1       8.51204-15.7464 .716928 1
GRID     2357    1       8.42632-18.2585 .702459 1
GRID     2358    1       8.71433-19.9267 .751665 1
GRID     2359    1       8.35711-20.8171 .690887 1
GRID     2360    1       8.65582-22.4109 .741531 1
GRID     2361    1       9.00926-21.487  .803822 1
GRID     2362    1       8.96078-23.8973 .795126 1
GRID     2363    1       9.31045-22.9473 .858931 1
GRID     2364    1       10.4772-10.8934 1.09019 1
GRID     2365    1       10.608 -8.94828 1.1179  1
GRID     2366    1       10.3727-7.31111 1.06833 1
GRID     2367    1       10.2318-9.28018 1.0392  1
GRID     2368    1       9.99488-7.58909 .991158 1
GRID     2369    1       9.8559 -9.63741 .963522 1
GRID     2370    1       10.1033-11.3018 1.01299 1
GRID     2371    1       9.72987-11.7415 .938806 1
GRID     2372    1       9.98761-13.3728 .989705 1
GRID     2373    1       10.3587-12.8854 1.06543 1
GRID     2374    1       10.253 -14.9209 1.04356 1
GRID     2375    1       10.6217-14.3916 1.12082 1
GRID     2376    1       9.43438-41.6509 .882157 1
GRID     2377    1       9.7968 -42.3525 .951889 1
GRID     2378    1       9.72241-40.1583 .937353 1
GRID     2379    1       9.36487-39.367  .869093 1
GRID     2380    1       9.66248-37.9337 .925727 1
GRID     2381    1       9.31045-37.0527 .858934 1
GRID     2382    1       9.00926-38.513  .803822 1
GRID     2383    1       8.96078-36.1027 .795126 1
GRID     2384    1       9.9    -30.     .972245 1
GRID     2385    1       10.2318-31.067  1.03919 1
GRID     2386    1       10.5669-32.0666 1.10915 1
GRID     2387    1       10.56  -30.     1.10769 1
GRID     2388    1       10.2318-28.933  1.03919 1
GRID     2389    1       10.5669-27.9334 1.10915 1
GRID     2390    1       10.246 -26.8021 1.04211 1
GRID     2391    1       9.90733-27.7958 .973701 1
GRID     2392    1       9.92929-25.5981 .978063 1
GRID     2393    1       9.58705-26.582  .911201 1
GRID     2394    1       9.5719 -28.8595 .908295 1
GRID     2395    1       9.24785-27.6385 .847326 1
GRID     2396    1       9.24   -30.     .845873 1
GRID     2397    1       9.5719 -31.1405 .908295 1
GRID     2398    1       9.24785-32.3615 .847326 1
GRID     2399    1       9.58705-33.418  .911197 1
GRID     2400    1       9.90733-32.2042 .973701 1
GRID     2401    1       9.92929-34.402  .978066 1
GRID     2402    1       10.246 -33.1979 1.04211 1
GRID     2403    1       10.4425-18.4222 1.0829  1
GRID     2404    1       10.3727-20.4847 1.06833 1
GRID     2405    1       10.6694-21.7868 1.13103 1
GRID     2406    1       10.3166-22.5723 1.05667 1
GRID     2407    1       10.6217-23.8216 1.12082 1
GRID     2408    1       10.4841-58.1962 1.09165 1
GRID     2409    1       10.5735-56.4233 1.11055 1
GRID     2410    1       10.608 -51.0517 1.1179  1
GRID     2411    1       10.3727-52.6889 1.06833 1
GRID     2412    1       10.3587-47.1146 1.06542 1
GRID     2413    1       10.253 -45.0791 1.04356 1
GRID     2414    1       10.6217-45.6084 1.12082 1
GRID     2415    1       10.4425-41.5778 1.0829  1
GRID     2416    1       10.3727-39.5153 1.06833 1
GRID     2417    1       10.6694-38.2132 1.13103 1
GRID     2418    1       10.3166-37.4277 1.05667 1
GRID     2419    1       10.6217-36.1784 1.12082 1
GRID     2420    1       11.    -58.0359 1.20306 1
GRID     2421    1       11.    -1.96408 1.20305 1
GRID     2422    1       11.    -3.49173 1.20306 1
GRID     2423    1       11.    -5.23762 1.20307 1
GRID     2424    1       11.    -7.01366 1.20306 1
GRID     2425    1       11.    -8.78974 1.20306 1
GRID     2426    1       11.    -10.5658 1.20306 1
GRID     2427    1       11.    -12.3419 1.20306 1
GRID     2428    1       11.    -14.118  1.20307 1
GRID     2429    1       11.    -15.894  1.20307 1
GRID     2430    1       11.    -17.7099 1.20306 1
GRID     2431    1       11.    -19.5258 1.20306 1
GRID     2432    1       11.    -21.3417 1.20306 1
GRID     2433    1       11.    -23.1576 1.20306 1
GRID     2434    1       11.    -24.9735 1.20306 1
GRID     2435    1       11.    -26.7894 1.20306 1
GRID     2436    1       11.    -29.     1.20306 1
GRID     2437    1       11.    -31.     1.20306 1
GRID     2438    1       11.    -33.2106 1.20306 1
GRID     2439    1       11.    -35.0265 1.20306 1
GRID     2440    1       11.    -36.8424 1.20306 1
GRID     2441    1       11.    -38.6583 1.20306 1
GRID     2442    1       11.    -40.4742 1.20306 1
GRID     2443    1       11.    -42.2901 1.20306 1
GRID     2444    1       11.    -44.106  1.20306 1
GRID     2445    1       11.    -45.882  1.20306 1
GRID     2446    1       11.    -47.6581 1.20306 1
GRID     2447    1       11.    -49.4342 1.20306 1
GRID     2448    1       11.    -51.2103 1.20306 1
GRID     2449    1       11.    -52.9863 1.20306 1
GRID     2450    1       11.    -54.7624 1.20306 1
GRID     2451    1       11.    -56.5083 1.20306 1
GRID     2452    1       7.13899 43.8979 .503227 1
GRID     2453    1       7.61149 47.4802 .572435 1
GRID     2454    1       8.63062 53.4132 .737187 1
GRID     2455    1       9.16901 55.8722 .832821 1
GRID     2456    1       8.11022 50.633  .650408 1
GRID     2457    1       10.2884 60.     1.05085 1
GRID     2458    1       9.72241 58.0549 .937353 1
GRID     2459    1       4.98289 83.4132 .244537 1
GRID     2460    1       4.68244 80.633  .215876 1
GRID     2461    1       5.33472 81.7868 .280387 1
GRID     2462    1       5.69031 80.3626 .319134 1
GRID     2463    1       6.049   79.1066 .360784 1
GRID     2464    1       6.13244 75.6084 .370843 1
GRID     2465    1       6.23808 72.2164 .383777 1
GRID     2466    1       6.36481 68.9483 .399592 1
GRID     2467    1       6.13244 66.1784 .370843 1
GRID     2468    1       5.91551 63.1979 .344981 1
GRID     2469    1       5.71577 60.     .322004 1
GRID     2470    1       5.33472 60.     .280387 1
GRID     2471    1       6.95353 85.285  .477299 1
GRID     2472    1       6.64385 83.4132 .435552 1
GRID     2473    1       6.34196 81.3609 .396717 1
GRID     2474    1       6.74148 68.4445 .448504 1
GRID     2475    1       7.11862 67.9941 .500346 1
GRID     2476    1       7.49616 67.5891 .555124 1
GRID     2477    1       7.64955 64.9496 .578207 1
GRID     2478    1       7.81852 62.419  .604187 1
GRID     2479    1       8.00207 60.     .633073 1
GRID     2480    1       7.29989 84.0075 .526286 1
GRID     2481    1       7.64955 82.8462 .578207 1
GRID     2482    1       8.00207 81.7868 .63307  1
GRID     2483    1       8.06533 79.1066 .643183 1
GRID     2484    1       8.14594 76.4738 .65619  1
GRID     2485    1       8.2434  73.8979 .67209  1
GRID     2486    1       7.98391 71.927  .630182 1
GRID     2487    1       7.73449 69.8264 .591196 1
GRID     2488    1       8.61378 84.9241 .734294 1
GRID     2489    1       8.30482 83.4132 .682212 1
GRID     2490    1       8.61378 73.2891 .734294 1
GRID     2491    1       8.98505 72.7305 .799473 1
GRID     2492    1       9.35712 72.2164 .86764  1
GRID     2493    1       9.48044 70.0229 .890865 1
GRID     2494    1       9.6173  67.8889 .917009 1
GRID     2495    1       9.76711 65.8175 .946074 1
GRID     2496    1       9.54912 63.9632 .903936 1
GRID     2497    1       9.34158 62.0245 .864737 1
GRID     2498    1       9.14523 60.     .828468 1
GRID     2499    1       8.76418 60.     .760355 1
GRID     2500    1       8.38313 60.     .695225 1
GRID     2501    1       9.88532 75.4896 .969339 1
GRID     2502    1       9.6173  73.8979 .917009 1
GRID     2503    1       10.1463 65.5994 1.02172 1
GRID     2504    1       10.5256 65.397  1.1004  1
GRID     2505    1       10.845  63.4917 1.169   1
GRID     2506    1       5.23859 70.8934 .270347 1
GRID     2507    1       5.61323 70.1583 .31052  1
GRID     2508    1       5.98869 69.5153 .353602 1
GRID     2509    1       5.86621 73.0039 .339236 1
GRID     2510    1       5.4956  73.8979 .297604 1
GRID     2511    1       5.76635 76.6272 .327749 1
GRID     2512    1       5.40233 77.7837 .287561 1
GRID     2513    1       5.12652 74.9209 .258875 1
GRID     2514    1       5.04083 79.1066 .250273 1
GRID     2515    1       4.75933 76.1021 .22304  1
GRID     2516    1       4.86494 71.7415 .233071 1
GRID     2517    1       4.99744 67.5891 .245972 1
GRID     2518    1       5.15477 63.6705 .261742 1
GRID     2519    1       5.37539 67.0527 .284692 1
GRID     2520    1       5.53509 63.418  .301909 1
GRID     2521    1       5.75375 66.5868 .326311 1
GRID     2522    1       5.63904 84.1825 .313393 1
GRID     2523    1       5.98869 82.6889 .353602 1
GRID     2524    1       6.296   84.7913 .390966 1
GRID     2525    1       6.85892 60.     .464338 1
GRID     2526    1       7.23997 60.     .517638 1
GRID     2527    1       7.62102 60.     .573879 1
GRID     2528    1       7.43782 62.5429 .54647  1
GRID     2529    1       7.05717 62.6802 .491701 1
GRID     2530    1       7.26999 65.2087 .521961 1
GRID     2531    1       6.8906  65.4964 .468657 1
GRID     2532    1       6.67656 62.8331 .439868 1
GRID     2533    1       6.51141 65.8175 .418289 1
GRID     2534    1       6.296   63.0045 .390966 1
GRID     2535    1       6.47787 60.     .413973 1
GRID     2536    1       6.09682 60.     .366533 1
GRID     2537    1       7.13899 76.1021 .503227 1
GRID     2538    1       7.50584 75.2953 .556568 1
GRID     2539    1       7.87403 74.5639 .61285  1
GRID     2540    1       7.78129 77.2695 .598415 1
GRID     2541    1       7.41827 78.1432 .543588 1
GRID     2542    1       7.70628 80.034  .586867 1
GRID     2543    1       7.34945 81.0517 .533493 1
GRID     2544    1       7.05717 79.1066 .491701 1
GRID     2545    1       6.99517 82.1729 .483059 1
GRID     2546    1       6.69827 80.1736 .442747 1
GRID     2547    1       6.77371 76.9961 .452823 1
GRID     2548    1       6.41027 77.9917 .405343 1
GRID     2549    1       6.50025 74.7047 .416849 1
GRID     2550    1       6.8695  73.8979 .465778 1
GRID     2551    1       6.61099 71.5175 .431235 1
GRID     2552    1       6.98478 70.8934 .481618 1
GRID     2553    1       7.23997 73.1736 .517638 1
GRID     2554    1       7.35932 70.3327 .534934 1
GRID     2555    1       7.61149 72.5198 .572435 1
GRID     2556    1       7.61149 85.6934 .572435 1
GRID     2557    1       7.95658 84.5036 .625848 1
GRID     2558    1       8.26978 86.0368 .676428 1
GRID     2559    1       8.63062 66.5868 .737187 1
GRID     2560    1       9.00926 66.3088 .803822 1
GRID     2561    1       9.3881  66.0533 .873445 1
GRID     2562    1       9.24    68.2132 .845876 1
GRID     2563    1       8.86303 68.5651 .777736 1
GRID     2564    1       9.10545 70.4403 .821218 1
GRID     2565    1       8.73098 70.8934 .754562 1
GRID     2566    1       8.48641 68.9483 .712587 1
GRID     2567    1       8.3571  71.3871 .690887 1
GRID     2568    1       8.11022 69.367  .650408 1
GRID     2569    1       8.2522  66.8903 .673537 1
GRID     2570    1       7.87403 67.2229 .61285  1
GRID     2571    1       8.02925 64.715  .637404 1
GRID     2572    1       8.40907 64.5016 .699566 1
GRID     2573    1       8.19924 62.3066 .664862 1
GRID     2574    1       8.58    62.2042 .728503 1
GRID     2575    1       8.78899 64.3066 .764699 1
GRID     2576    1       8.96078 62.1105 .795126 1
GRID     2577    1       9.16901 64.1278 .832821 1
GRID     2578    1       9.0735  79.1066 .815419 1
GRID     2579    1       9.43438 78.3491 .882157 1
GRID     2580    1       9.7968  77.6475 .951889 1
GRID     2581    1       9.72241 79.8417 .937353 1
GRID     2582    1       9.36487 80.633  .869093 1
GRID     2583    1       9.66248 82.0663 .925727 1
GRID     2584    1       9.31045 82.9473 .858931 1
GRID     2585    1       9.00926 81.487  .803822 1
GRID     2586    1       8.96078 83.8973 .795126 1
GRID     2587    1       8.65582 82.4109 .741531 1
GRID     2588    1       8.71433 79.9267 .751665 1
GRID     2589    1       8.3571  80.8171 .690887 1
GRID     2590    1       8.42632 78.2585 .702459 1
GRID     2591    1       8.78899 77.4802 .764699 1
GRID     2592    1       8.51204 75.7464 .716928 1
GRID     2593    1       8.87939 75.0791 .780636 1
GRID     2594    1       9.15316 76.7637 .829918 1
GRID     2595    1       9.24785 74.465  .847326 1
GRID     2596    1       9.51866 76.1021 .898127 1
GRID     2597    1       10.4841 61.8038 1.09165 1
GRID     2598    1       10.5735 63.5767 1.11055 1
GRID     2599    1       9.90733 60.     .973701 1
GRID     2600    1       9.52628 60.     .89958  1
GRID     2601    1       9.72241 61.9451 .937353 1
GRID     2602    1       10.1033 61.8718 1.01299 1
GRID     2603    1       9.92929 63.8113 .978066 1
GRID     2604    1       10.3095 63.6705 1.05522 1
GRID     2605    1       10.3727 67.3111 1.06833 1
GRID     2606    1       10.2318 69.2802 1.03919 1
GRID     2607    1       9.99488 67.5891 .991158 1
GRID     2608    1       9.8559  69.6374 .963522 1
GRID     2609    1       10.1033 71.3018 1.01299 1
GRID     2610    1       9.72987 71.7415 .938806 1
GRID     2611    1       9.98761 73.3728 .989702 1
GRID     2612    1       5.91551 56.8021 .344981 1
GRID     2613    1       6.13244 53.8216 .370843 1
GRID     2614    1       6.36481 51.0517 .399592 1
GRID     2615    1       6.23808 47.7836 .383777 1
GRID     2616    1       7.81852 57.581  .604187 1
GRID     2617    1       7.64955 55.0504 .578207 1
GRID     2618    1       7.49616 52.4109 .555124 1
GRID     2619    1       7.11862 52.0059 .500346 1
GRID     2620    1       6.74148 51.5555 .448504 1
GRID     2621    1       7.73449 50.1736 .591196 1
GRID     2622    1       9.34159 57.9756 .864737 1
GRID     2623    1       5.98869 50.4847 .353602 1
GRID     2624    1       5.75375 53.4132 .326311 1
GRID     2625    1       5.53509 56.582  .301909 1
GRID     2626    1       7.05717 57.3198 .491701 1
GRID     2627    1       7.26999 54.7913 .521961 1
GRID     2628    1       7.43782 57.4571 .546473 1
GRID     2629    1       6.296   56.9955 .390966 1
GRID     2630    1       6.67656 57.1669 .439868 1
GRID     2631    1       6.51141 54.1825 .418289 1
GRID     2632    1       6.8906  54.5036 .46866  1
GRID     2633    1       7.23997 46.8264 .517638 1
GRID     2634    1       7.35932 49.6673 .534937 1
GRID     2635    1       6.98478 49.1066 .481618 1
GRID     2636    1       6.8695  46.1021 .465778 1
GRID     2637    1       6.61099 48.4825 .431235 1
GRID     2638    1       6.50025 45.2953 .416849 1
GRID     2639    1       6.77371 43.0039 .452823 1
GRID     2640    1       8.78899 55.6934 .764699 1
GRID     2641    1       8.96078 57.8895 .795126 1
GRID     2642    1       8.58    57.7958 .728503 1
GRID     2643    1       8.40907 55.4984 .699566 1
GRID     2644    1       8.19924 57.6934 .664862 1
GRID     2645    1       8.02925 55.285  .637404 1
GRID     2646    1       8.2522  53.1097 .673537 1
GRID     2647    1       7.87403 52.7771 .61285  1
GRID     2648    1       8.92831 86.3295 .789329 1
GRID     2649    1       9.27138 85.285  .851678 1
GRID     2650    1       9.6173  84.3153 .917009 1
GRID     2651    1       9.58705 86.582  .911201 1
GRID     2652    1       11.     63.4917 1.20306 1
GRID     2653    1       4.57261 180.    .205848 1
GRID     2654    1       5.71577 180.    .322004 1
GRID     2655    1       5.91551 176.802 .344981 1
GRID     2656    1       6.13244 173.822 .370843 1
GRID     2657    1       6.36481 171.052 .399592 1
GRID     2658    1       6.23808 167.784 .383777 1
GRID     2659    1       9.54912 176.037 .903936 1
GRID     2660    1       9.76711 174.183 .946074 1
GRID     2661    1       9.6173  172.111 .917009 1
GRID     2662    1       10.1463 174.401 1.02173 1
GRID     2663    1       4.95367 180.    .241671 1
GRID     2664    1       5.33472 180.    .280387 1
GRID     2665    1       5.23859 169.107 .270347 1
GRID     2666    1       5.4956  166.102 .297604 1
GRID     2667    1       5.86621 166.996 .339236 1
GRID     2668    1       5.61323 169.842 .31052  1
GRID     2669    1       5.98869 170.485 .353599 1
GRID     2670    1       5.75375 173.413 .326311 1
GRID     2671    1       5.37539 172.947 .284692 1
GRID     2672    1       5.53509 176.582 .301909 1
GRID     2673    1       5.15477 176.33  .261742 1
GRID     2674    1       4.99744 172.411 .245972 1
GRID     2675    1       4.77456 176.037 .224472 1
GRID     2676    1       4.62    171.787 .210146 1
GRID     2677    1       4.86494 168.259 .233071 1
GRID     2678    1       4.75933 163.898 .22304  1
GRID     2679    1       5.12652 165.079 .258875 1
GRID     2680    1       6.47787 180.    .413973 1
GRID     2681    1       6.09682-180.    .366533 1
GRID     2682    1       6.296   176.996 .390966 1
GRID     2683    1       6.51141 174.183 .418289 1
GRID     2684    1       6.61099 168.483 .431235 1
GRID     2685    1       10.2884 180.    1.05085 1
GRID     2686    1       9.90733 180.    .973701 1
GRID     2687    1       9.52628 180.    .89958  1
GRID     2688    1       9.72241 178.055 .937353 1
GRID     2689    1       10.1033 178.128 1.01299 1
GRID     2690    1       9.92929 176.189 .978063 1
GRID     2691    1       10.3095 176.33  1.05522 1
GRID     2692    1       10.3727 172.689 1.06833 1
GRID     2693    1       9.99488 172.411 .991158 1
GRID     2694    1       4.98289-156.587 .244537 1
GRID     2695    1       5.33472-158.213 .280387 1
GRID     2696    1       5.69031-159.637 .319134 1
GRID     2697    1       6.049  -160.893 .360784 1
GRID     2698    1       6.13244-164.392 .370843 1
GRID     2699    1       6.23808-167.784 .383777 1
GRID     2700    1       6.36481-171.052 .399592 1
GRID     2701    1       6.13244-173.822 .370843 1
GRID     2702    1       5.91551-176.802 .344981 1
GRID     2703    1       6.93262-151.575 .474417 1
GRID     2704    1       6.95353-154.715 .477299 1
GRID     2705    1       6.64386-156.587 .435552 1
GRID     2706    1       6.34196-158.639 .396717 1
GRID     2707    1       7.29989-155.993 .526286 1
GRID     2708    1       7.64955-157.154 .578207 1
GRID     2709    1       8.00207-158.213 .633073 1
GRID     2710    1       8.06533-160.893 .643183 1
GRID     2711    1       8.14594-163.526 .65619  1
GRID     2712    1       8.2434 -166.102 .67209  1
GRID     2713    1       8.30482-156.587 .682209 1
GRID     2714    1       8.61378-166.711 .734294 1
GRID     2715    1       8.98505-167.27  .799473 1
GRID     2716    1       9.35712-167.784 .86764  1
GRID     2717    1       9.6173 -172.111 .917009 1
GRID     2718    1       9.76711-174.183 .946074 1
GRID     2719    1       9.54912-176.037 .903936 1
GRID     2720    1       10.0817-160.893 1.00862 1
GRID     2721    1       10.1606-163.004 1.02463 1
GRID     2722    1       9.88532-164.51  .969339 1
GRID     2723    1       9.6173 -166.102 .917009 1
GRID     2724    1       10.1463-174.401 1.02173 1
GRID     2725    1       10.5256-163.61  1.10041 1
GRID     2726    1       10.845 -162.29  1.16899 1
GRID     2727    1       5.23859-169.107 .270347 1
GRID     2728    1       5.61323-169.842 .31052  1
GRID     2729    1       5.98869-170.485 .353599 1
GRID     2730    1       5.86621-166.996 .339236 1
GRID     2731    1       5.4956 -166.102 .297604 1
GRID     2732    1       5.76635-163.373 .327749 1
GRID     2733    1       5.40233-162.216 .287561 1
GRID     2734    1       5.12652-165.079 .258875 1
GRID     2735    1       5.04083-160.893 .250273 1
GRID     2736    1       4.75933-163.898 .22304  1
GRID     2737    1       4.86494-168.259 .233071 1
GRID     2738    1       4.62   -171.787 .210146 1
GRID     2739    1       4.99744-172.411 .245972 1
GRID     2740    1       4.77456-176.037 .224472 1
GRID     2741    1       5.15477-176.33  .261742 1
GRID     2742    1       5.37539-172.947 .284692 1
GRID     2743    1       5.53509-176.582 .301909 1
GRID     2744    1       5.75375-173.413 .326311 1
GRID     2745    1       5.94   -150.    .347854 1
GRID     2746    1       6.27289-151.741 .38809  1
GRID     2747    1       6.61099-153.304 .431235 1
GRID     2748    1       6.6    -150.    .429798 1
GRID     2749    1       6.27289-148.26  .38809  1
GRID     2750    1       5.61323-151.945 .310523 1
GRID     2751    1       5.29373-154.128 .276083 1
GRID     2752    1       5.63904-155.818 .313393 1
GRID     2753    1       5.95221-153.671 .349291 1
GRID     2754    1       5.98869-157.311 .353599 1
GRID     2755    1       6.296  -155.209 .390966 1
GRID     2756    1       6.51141-174.183 .418289 1
GRID     2757    1       6.296  -176.996 .390966 1
GRID     2758    1       7.13899-163.898 .503227 1
GRID     2759    1       7.50584-164.705 .556568 1
GRID     2760    1       7.87403-165.436 .61285  1
GRID     2761    1       7.78129-162.731 .598415 1
GRID     2762    1       7.41827-161.857 .543588 1
GRID     2763    1       7.70628-159.966 .586867 1
GRID     2764    1       7.34945-158.948 .533493 1
GRID     2765    1       7.05717-160.893 .491701 1
GRID     2766    1       6.99517-157.827 .483059 1
GRID     2767    1       6.69827-159.826 .442747 1
GRID     2768    1       6.77371-163.004 .452823 1
GRID     2769    1       6.41027-162.008 .405343 1
GRID     2770    1       6.50025-165.295 .416849 1
GRID     2771    1       6.61099-168.483 .431235 1
GRID     2772    1       7.26999-153.005 .521961 1
GRID     2773    1       7.61149-154.307 .572435 1
GRID     2774    1       7.95658-155.496 .625848 1
GRID     2775    1       9.0735 -160.893 .815419 1
GRID     2776    1       9.43438-161.651 .882154 1
GRID     2777    1       9.7968 -162.353 .951889 1
GRID     2778    1       9.72241-160.158 .937353 1
GRID     2779    1       9.36487-159.367 .869093 1
GRID     2780    1       9.00926-158.513 .803822 1
GRID     2781    1       8.65582-157.589 .741531 1
GRID     2782    1       8.71433-160.073 .751665 1
GRID     2783    1       8.3571 -159.183 .690887 1
GRID     2784    1       8.42632-161.742 .702459 1
GRID     2785    1       8.78899-162.52  .764702 1
GRID     2786    1       8.51204-164.254 .716928 1
GRID     2787    1       8.87939-164.921 .780636 1
GRID     2788    1       9.15316-163.236 .829921 1
GRID     2789    1       9.24785-165.535 .847326 1
GRID     2790    1       9.51866-163.898 .898127 1
GRID     2791    1       9.72241-178.055 .937353 1
GRID     2792    1       10.1033-178.128 1.01299 1
GRID     2793    1       9.92929-176.189 .978063 1
GRID     2794    1       10.3095-176.33  1.05522 1
GRID     2795    1       10.4772-169.107 1.09019 1
GRID     2796    1       10.3727-172.689 1.06833 1
GRID     2797    1       10.2318-170.72  1.0392  1
GRID     2798    1       9.99488-172.411 .991158 1
GRID     2799    1       9.8559 -170.363 .963522 1
GRID     2800    1       10.1033-168.698 1.01299 1
GRID     2801    1       9.72987-168.259 .938806 1
GRID     2802    1       9.98761-166.627 .989702 1
GRID     2803    1       10.3587-167.115 1.06543 1
GRID     2804    1       10.253 -165.079 1.04356 1
GRID     2805    1       10.6217-165.608 1.12082 1
GRID     2806    1       10.4425-161.578 1.0829  1
GRID     2807    1       11.    -162.29  1.20306 1
GRID     2808    1       5.95221-146.33  .349291 1
GRID     2809    1       5.63904-144.183 .313393 1
GRID     2810    1       5.61324-148.055 .31052  1
GRID     2811    1       5.28   -150.    .274648 1
GRID     2812    1       4.57261-60.     .205848 1
GRID     2813    1       5.71577-60.     .322004 1
GRID     2814    1       5.91551-63.1979 .344981 1
GRID     2815    1       6.13244-66.1784 .370843 1
GRID     2816    1       6.36481-68.9483 .399592 1
GRID     2817    1       6.74148-68.4445 .448504 1
GRID     2818    1       7.98391-71.927  .630182 1
GRID     2819    1       8.2434 -73.8979 .67209  1
GRID     2820    1       4.95367-60.     .241671 1
GRID     2821    1       5.33472-60.     .280387 1
GRID     2822    1       5.98869-69.5153 .353602 1
GRID     2823    1       5.75375-66.5868 .326311 1
GRID     2824    1       5.37539-67.0527 .284692 1
GRID     2825    1       5.53509-63.418  .301909 1
GRID     2826    1       5.15477-63.6705 .261742 1
GRID     2827    1       4.77456-63.9632 .224472 1
GRID     2828    1       6.09682-60.     .366533 1
GRID     2829    1       7.87403-74.5639 .61285  1
GRID     2830    1       7.61149-72.5198 .572435 1
GRID     2831    1       7.23997-73.1736 .517638 1
GRID     2832    1       7.35932-70.3327 .534934 1
GRID     2833    1       6.98478-70.8934 .481618 1
GRID     2834    1       6.61099-71.5175 .431235 1
GRID     2835    1       6.049  -40.8934 .360784 1
GRID     2836    1       6.13244-44.3916 .370843 1
GRID     2837    1       6.23808-47.7837 .383777 1
GRID     2838    1       6.36481-51.0517 .399592 1
GRID     2839    1       6.13244-53.8216 .370843 1
GRID     2840    1       5.91551-56.8021 .344981 1
GRID     2841    1       6.95353-34.715  .477299 1
GRID     2842    1       6.64385-36.5868 .435552 1
GRID     2843    1       6.34196-38.6391 .396717 1
GRID     2844    1       6.74148-51.5555 .448504 1
GRID     2845    1       7.29989-35.9926 .526286 1
GRID     2846    1       7.64955-37.1538 .578207 1
GRID     2847    1       8.00207-38.2132 .63307  1
GRID     2848    1       8.06533-40.8934 .643186 1
GRID     2849    1       8.14594-43.5262 .65619  1
GRID     2850    1       8.30482-36.5868 .682212 1
GRID     2851    1       8.61378-46.7109 .734294 1
GRID     2852    1       8.98505-47.2695 .799473 1
GRID     2853    1       9.35712-47.7837 .86764  1
GRID     2854    1       9.48044-49.9771 .890868 1
GRID     2855    1       9.6173 -52.1111 .917009 1
GRID     2856    1       9.6173 -46.1021 .917012 1
GRID     2857    1       5.23859-49.1066 .270347 1
GRID     2858    1       5.61323-49.8417 .31052  1
GRID     2859    1       5.98869-50.4847 .353602 1
GRID     2860    1       5.86621-46.9961 .339236 1
GRID     2861    1       5.4956 -46.1021 .297604 1
GRID     2862    1       5.76635-43.3728 .327749 1
GRID     2863    1       4.99744-52.4109 .245972 1
GRID     2864    1       4.77456-56.0368 .224472 1
GRID     2865    1       5.15477-56.3295 .261742 1
GRID     2866    1       5.37539-52.9473 .284692 1
GRID     2867    1       5.53509-56.582  .301909 1
GRID     2868    1       5.75375-53.4132 .326311 1
GRID     2869    1       6.51141-54.1825 .418289 1
GRID     2870    1       6.296  -56.9955 .390966 1
GRID     2871    1       7.13899-43.8979 .503227 1
GRID     2872    1       7.50584-44.7047 .556568 1
GRID     2873    1       7.78129-42.7305 .598415 1
GRID     2874    1       7.41827-41.8568 .543588 1
GRID     2875    1       7.70628-39.966  .586867 1
GRID     2876    1       7.34945-38.9483 .533493 1
GRID     2877    1       7.05717-40.8934 .491701 1
GRID     2878    1       6.99517-37.8271 .483059 1
GRID     2879    1       6.69827-39.8264 .442747 1
GRID     2880    1       6.77371-43.0039 .452823 1
GRID     2881    1       6.41027-42.0083 .405343 1
GRID     2882    1       6.50025-45.2953 .416849 1
GRID     2883    1       6.8695 -46.1021 .465778 1
GRID     2884    1       6.61099-48.4825 .431235 1
GRID     2885    1       6.98478-49.1066 .481618 1
GRID     2886    1       7.23997-46.8265 .517638 1
GRID     2887    1       7.92   -30.     .620072 1
GRID     2888    1       7.59239-31.438  .56955  1
GRID     2889    1       7.26999-33.0045 .521961 1
GRID     2890    1       7.61149-34.3066 .572435 1
GRID     2891    1       7.92916-32.7545 .621516 1
GRID     2892    1       7.95658-35.4964 .625848 1
GRID     2893    1       8.26978-33.9632 .676428 1
GRID     2894    1       9.10545-49.5597 .821218 1
GRID     2895    1       9.0735 -40.8934 .815419 1
GRID     2896    1       8.65582-37.5891 .741531 1
GRID     2897    1       8.71433-40.0733 .751668 1
GRID     2898    1       8.35711-39.1829 .690887 1
GRID     2899    1       8.42631-41.7415 .702459 1
GRID     2900    1       8.78899-42.5198 .764699 1
GRID     2901    1       8.51204-44.2536 .716928 1
GRID     2902    1       8.87939-44.9209 .780633 1
GRID     2903    1       9.15316-43.2363 .829921 1
GRID     2904    1       9.24785-45.5351 .847326 1
GRID     2905    1       9.51866-43.8979 .898127 1
GRID     2906    1       10.4772-49.1066 1.09019 1
GRID     2907    1       10.2318-50.7198 1.03919 1
GRID     2908    1       9.99488-52.4109 .991158 1
GRID     2909    1       9.8559 -50.3626 .963522 1
GRID     2910    1       10.1033-48.6982 1.01299 1
GRID     2911    1       9.72987-48.2585 .938806 1
GRID     2912    1       9.98761-46.6272 .989702 1
GRID     2913    1       7.85788 49.1066 .610323 1
GRID     2914    1       9.444   56.9955 .883971 1
GRID     2915    1       9.444   63.0045 .883971 1
GRID     2916    1       7.85788 70.8934 .610323 1
GRID     2917    1       6.93    68.2132 .474059 1
GRID     2918    1       6.93    51.7868 .474059 1
GRID     2919    1       8.86303 171.435 .777739 1
GRID     2920    1       9.24    171.787 .845876 1
GRID     2921    1       9.00926 173.691 .803822 1
GRID     2922    1       9.3881  173.947 .873445 1
GRID     2923    1       8.48641 171.052 .712587 1
GRID     2924    1       8.63062 173.413 .737187 1
GRID     2925    1       9.16901 175.872 .832821 1
GRID     2926    1       8.11022 170.633 .650411 1
GRID     2927    1       6.74148-171.556 .448504 1
GRID     2928    1       7.11862-172.006 .500346 1
GRID     2929    1       7.49616-172.411 .555124 1
GRID     2930    1       7.64955-175.05  .578207 1
GRID     2931    1       7.81852-177.581 .604187 1
GRID     2932    1       8.00207 180.    .63307  1
GRID     2933    1       7.98391-168.073 .630182 1
GRID     2934    1       7.73449-170.174 .591196 1
GRID     2935    1       9.48044-169.977 .890865 1
GRID     2936    1       9.34158-177.976 .864737 1
GRID     2937    1       9.14523-180.    .828471 1
GRID     2938    1       8.76418-180.    .760355 1
GRID     2939    1       8.38313 180.    .695228 1
GRID     2940    1       6.85892 180.    .464338 1
GRID     2941    1       7.23997 180.    .517638 1
GRID     2942    1       7.62102 180.    .573879 1
GRID     2943    1       7.43782-177.457 .546473 1
GRID     2944    1       7.05717-177.32  .491701 1
GRID     2945    1       7.26999-174.791 .521961 1
GRID     2946    1       6.8906 -174.504 .468657 1
GRID     2947    1       6.67656-177.167 .439871 1
GRID     2948    1       6.8695 -166.102 .465778 1
GRID     2949    1       6.98478-169.107 .481618 1
GRID     2950    1       7.23997-166.826 .517638 1
GRID     2951    1       7.35932-169.667 .534934 1
GRID     2952    1       7.61149-167.48  .572435 1
GRID     2953    1       8.63062-173.413 .737187 1
GRID     2954    1       9.00926-173.691 .803822 1
GRID     2955    1       9.3881 -173.947 .873445 1
GRID     2956    1       9.24   -171.787 .845876 1
GRID     2957    1       8.86303-171.435 .777739 1
GRID     2958    1       9.10545-169.56  .821218 1
GRID     2959    1       8.73098-169.107 .754562 1
GRID     2960    1       8.48641-171.052 .712587 1
GRID     2961    1       8.3571 -168.613 .690887 1
GRID     2962    1       8.11022-170.633 .650408 1
GRID     2963    1       8.2522 -173.11  .673537 1
GRID     2964    1       7.87403-172.777 .61285  1
GRID     2965    1       8.02925-175.285 .637404 1
GRID     2966    1       8.40907-175.498 .699566 1
GRID     2967    1       8.19924-177.693 .664862 1
GRID     2968    1       8.58   -177.796 .728503 1
GRID     2969    1       8.78899-175.693 .764699 1
GRID     2970    1       8.96078-177.89  .795126 1
GRID     2971    1       9.16901-175.872 .832821 1
GRID     2972    1       7.81852 177.581 .604187 1
GRID     2973    1       7.64955 175.05  .578207 1
GRID     2974    1       7.49616 172.411 .555124 1
GRID     2975    1       7.11862 172.006 .500346 1
GRID     2976    1       6.74148 171.556 .448504 1
GRID     2977    1       7.73449 170.174 .591196 1
GRID     2978    1       9.34159 177.976 .864737 1
GRID     2979    1       7.05717 177.32  .491701 1
GRID     2980    1       7.26999 174.791 .521961 1
GRID     2981    1       7.43782 177.457 .546473 1
GRID     2982    1       6.67656 177.167 .439871 1
GRID     2983    1       6.8906  174.504 .468657 1
GRID     2984    1       7.35932 169.667 .534934 1
GRID     2985    1       6.98478 169.107 .481618 1
GRID     2986    1       8.78899 175.693 .764699 1
GRID     2987    1       8.96078 177.89  .795126 1
GRID     2988    1       8.58    177.796 .728503 1
GRID     2989    1       8.40907 175.498 .699566 1
GRID     2990    1       8.19924 177.693 .664862 1
GRID     2991    1       8.02925 175.285 .637404 1
GRID     2992    1       8.2522  173.11  .673537 1
GRID     2993    1       7.87403 172.777 .61285  1
GRID     2994    1       7.85788 169.107 .610323 1
GRID     2995    1       9.444   176.996 .883971 1
GRID     2996    1       9.444  -176.996 .883971 1
GRID     2997    1       7.85788-169.107 .610323 1
GRID     2998    1       6.93   -171.787 .474059 1
GRID     2999    1       6.93    171.787 .474059 1
GRID     3000    1       9.54912-63.9632 .903936 1
GRID     3001    1       8.98505-72.7305 .799473 1
GRID     3002    1       8.86303-68.5651 .777736 1
GRID     3003    1       9.10545-70.4403 .821218 1
GRID     3004    1       9.24   -68.2132 .845876 1
GRID     3005    1       9.00926-66.3088 .803822 1
GRID     3006    1       9.3881 -66.0532 .873445 1
GRID     3007    1       8.48641-68.9483 .712587 1
GRID     3008    1       8.35711-71.3871 .690887 1
GRID     3009    1       8.73098-70.8934 .754562 1
GRID     3010    1       8.63062-66.5868 .737187 1
GRID     3011    1       9.16901-64.1278 .832821 1
GRID     3012    1       8.11022-69.367  .650408 1
GRID     3013    1       9.72241-61.9451 .937353 1
GRID     3014    1       7.11862-52.0059 .500346 1
GRID     3015    1       7.49616-52.4109 .555124 1
GRID     3016    1       7.64955-55.0504 .578207 1
GRID     3017    1       7.81852-57.581  .604187 1
GRID     3018    1       8.00207-60.     .633073 1
GRID     3019    1       8.2434 -46.1021 .67209  1
GRID     3020    1       7.98391-48.073  .630182 1
GRID     3021    1       7.73449-50.1736 .591196 1
GRID     3022    1       9.76711-54.1825 .946074 1
GRID     3023    1       9.54912-56.0368 .903939 1
GRID     3024    1       9.34158-57.9756 .864737 1
GRID     3025    1       9.14523-60.     .828468 1
GRID     3026    1       8.76418-60.     .760355 1
GRID     3027    1       8.38313-60.     .695225 1
GRID     3028    1       6.85892-60.     .464338 1
GRID     3029    1       7.23997-60.     .517638 1
GRID     3030    1       7.62102-60.     .573879 1
GRID     3031    1       7.43782-57.4571 .546473 1
GRID     3032    1       7.05717-57.3198 .491701 1
GRID     3033    1       7.26999-54.7913 .521961 1
GRID     3034    1       6.8906 -54.5036 .46866  1
GRID     3035    1       6.67656-57.1669 .439868 1
GRID     3036    1       6.47787-60.     .413973 1
GRID     3037    1       7.87403-45.4361 .61285  1
GRID     3038    1       7.35932-49.6673 .534937 1
GRID     3039    1       7.61149-47.4802 .572435 1
GRID     3040    1       8.63062-53.4132 .737187 1
GRID     3041    1       9.00926-53.6912 .803822 1
GRID     3042    1       9.3881 -53.9468 .873445 1
GRID     3043    1       9.24   -51.7868 .845876 1
GRID     3044    1       8.86302-51.4349 .777736 1
GRID     3045    1       8.73098-49.1066 .754562 1
GRID     3046    1       8.48641-51.0517 .712587 1
GRID     3047    1       8.3571 -48.6129 .690887 1
GRID     3048    1       8.11022-50.633  .650408 1
GRID     3049    1       8.2522 -53.1097 .673534 1
GRID     3050    1       7.87403-52.7771 .61285  1
GRID     3051    1       8.02925-55.285  .637404 1
GRID     3052    1       8.40907-55.4984 .699566 1
GRID     3053    1       8.19924-57.6934 .664862 1
GRID     3054    1       8.58   -57.7958 .728503 1
GRID     3055    1       8.78899-55.6934 .764699 1
GRID     3056    1       8.96078-57.8895 .795126 1
GRID     3057    1       9.16901-55.8722 .832821 1
GRID     3058    1       9.90733-60.     .973701 1
GRID     3059    1       9.52628-60.     .89958  1
GRID     3060    1       9.72241-58.0549 .937353 1
GRID     3061    1       10.1033-58.1282 1.01299 1
GRID     3062    1       9.92929-56.1887 .978063 1
GRID     3063    1       10.3095-56.3295 1.05522 1
GRID     3064    1       7.81852-62.419  .604187 1
GRID     3065    1       7.64955-64.9496 .578207 1
GRID     3066    1       7.49616-67.5891 .555124 1
GRID     3067    1       7.11862-67.9941 .500346 1
GRID     3068    1       7.73449-69.8264 .591196 1
GRID     3069    1       9.34158-62.0245 .864737 1
GRID     3070    1       7.05717-62.6802 .491701 1
GRID     3071    1       7.26999-65.2087 .521961 1
GRID     3072    1       7.43782-62.5429 .54647  1
GRID     3073    1       6.296  -63.0045 .390966 1
GRID     3074    1       6.67656-62.8331 .439868 1
GRID     3075    1       6.51141-65.8175 .418289 1
GRID     3076    1       6.8906 -65.4964 .468657 1
GRID     3077    1       8.78899-64.3066 .764699 1
GRID     3078    1       8.96078-62.1105 .795126 1
GRID     3079    1       8.58   -62.2042 .728503 1
GRID     3080    1       8.40907-64.5016 .699566 1
GRID     3081    1       8.19924-62.3066 .664862 1
GRID     3082    1       8.02925-64.715  .637404 1
GRID     3083    1       8.2522 -66.8903 .673537 1
GRID     3084    1       7.87403-67.2229 .61285  1
GRID     3085    1       7.85788-70.8934 .610323 1
GRID     3086    1       9.444  -63.0045 .883971 1
GRID     3087    1       9.444  -56.9955 .883971 1
GRID     3088    1       7.85788-49.1066 .610323 1
GRID     3089    1       6.93   -51.7868 .474059 1
GRID     3090    1       6.93   -68.2132 .474056 1
GRID     3091           -4.28688 8.41497 .884337 1
GRID     3092           -2.57213 6.43498 .474425 1
GRID     3093           -4.28684 5.44499 .474425 1
GRID     3094           -5.14414 7.92003 .884338 1
GRID     3095           -4.28688-8.41497 .884337 1
GRID     3096           -4.28684-5.44499 .474425 1
GRID     10001   1       2.925   20.    -1.69587 1
GRID     10002   1       2.925   26.6668-1.69587 1
GRID     10003   1       2.925   33.3336-1.69587 1
GRID     10004   1       2.925   40.    -1.69587 1
GRID     10005   1       2.925   46.6668-1.69587 1
GRID     10006   1       2.925   13.3336-1.69587 1
GRID     10007   1       3.42946 60.    -1.66431 1
GRID     10008   1       3.635   54.7913-1.65001 1
GRID     10009   1       3.86725 50.1736-1.63285 1
GRID     10010   1       4.1217  46.1021-1.61281 1
GRID     10011   1       4.24321 51.0517-1.60279 1
GRID     10012   1       4.01462 55.285 -1.6214  1
GRID     10013   1       4.3945  55.6934-1.58991 1
GRID     10014   1       3.81051 60.    -1.63714 1
GRID     10015   1       4.19156 60.    -1.60709 1
GRID     10016   1       4.57261 60.    -1.57415 1
GRID     10017   1       2.925   53.3336-1.69587 1
GRID     10018   1       3.2557  54.1825-1.67575 1
GRID     10019   1       3.11904 47.7837-1.68433 1
GRID     10020   1       3.38686 43.0039-1.66717 1
GRID     10021   1       3.49239 49.1066-1.66003 1
GRID     10022   1       3.75292 44.7047-1.64143 1
GRID     10024   1       4.95367 60.    -1.53833 1
GRID     10026   1       3.42946 0.     -1.66431 1
GRID     10027   1       3.81051 0.     -1.63714 1
GRID     10028   1       4.19156 0.     -1.60709 1
GRID     10029   1       4.57261 0.     -1.57415 1
GRID     10030   1       4.3945  4.30662-1.58991 1
GRID     10031   1       4.01462 4.715  -1.6214  1
GRID     10032   1       4.24321 8.94828-1.60279 1
GRID     10033   1       3.635   5.20872-1.65001 1
GRID     10034   1       3.86725 9.82643-1.63285 1
GRID     10035   1       4.1217  13.8979-1.61281 1
GRID     10036   1       3.75292 15.2953-1.64143 1
GRID     10037   1       3.49239 10.8934-1.66003 1
GRID     10038   1       3.38686 16.9961-1.66717 1
GRID     10039   1       3.2557  5.81753-1.67575 1
GRID     10040   1       3.11904 12.2164-1.68433 1
GRID     10041   1       2.925   6.6668 -1.69587 1
GRID     10042   1       3.96    30.    -1.62569 1
GRID     10043   1       4.29423 27.4571-1.5985  1
GRID     10044   1       4.63569 25.285 -1.56842 1
GRID     10045   1       4.98289 23.4132-1.53546 1
GRID     10046   1       4.95367 27.7958-1.53833 1
GRID     10047   1       4.62    30.    -1.56985 1
GRID     10048   1       4.95367 32.2042-1.53833 1
GRID     10049   1       4.29423 32.5429-1.5985  1
GRID     10050   1       4.63569 34.715 -1.56842 1
GRID     10051   1       4.98289 36.5868-1.53546 1
GRID     10052   1       4.68244 39.367 -1.56412 1
GRID     10053   1       4.32791 37.5891-1.59563 1
GRID     10054   1       4.3945  42.5198-1.58991 1
GRID     10055   1       3.97829 35.4964-1.62426 1
GRID     10056   1       4.03267 40.8934-1.61997 1
GRID     10057   1       3.67472 38.9483-1.64715 1
GRID     10058   1       3.635   33.0045-1.65001 1
GRID     10059   1       3.32193 36.5868-1.67146 1
GRID     10060   1       3.3     30.    -1.67289 1
GRID     10061   1       3.635   26.9955-1.65001 1
GRID     10062   1       3.32193 23.4132-1.67146 1
GRID     10063   1       3.67472 21.0517-1.64715 1
GRID     10064   1       3.97829 24.5036-1.62426 1
GRID     10065   1       4.03267 19.1066-1.61997 1
GRID     10066   1       4.3945  17.4802-1.58991 1
GRID     10067   1       4.32791 22.4109-1.59563 1
GRID     10068   1       4.68244 20.633 -1.56412 1
GRID     10069   1       5.23859 49.1066-1.50965 1
GRID     10070   1       5.4956  46.1021-1.4824  1
GRID     10071   1       5.76635 43.3728-1.45225 1
GRID     10072   1       6.049   40.8934-1.41922 1
GRID     10073   1       6.13244 44.3916-1.40916 1
GRID     10074   1       5.86621 46.9961-1.44076 1
GRID     10076   1       5.61323 49.8417-1.46948 1
GRID     10082   1       5.37539 52.9473-1.49531 1
GRID     10084   1       5.15477 56.3295-1.51826 1
GRID     10085   1       4.99744 52.4109-1.53403 1
GRID     10086   1       4.77456 56.0368-1.55553 1
GRID     10087   1       4.62    51.7868-1.56985 1
GRID     10088   1       4.86494 48.2585-1.54693 1
GRID     10089   1       4.49253 47.2695-1.58131 1
GRID     10090   1       4.75933 43.8979-1.55696 1
GRID     10091   1       5.12652 45.0791-1.52113 1
GRID     10092   1       5.04083 40.8934-1.52973 1
GRID     10093   1       5.33472 38.2132-1.49961 1
GRID     10094   1       5.40233 42.2164-1.49244 1
GRID     10095   1       5.69031 39.6374-1.46087 1
GRID     10117   1       5.23859 10.8934-1.50965 1
GRID     10118   1       5.61323 10.1583-1.46948 1
GRID     10119   1       5.98869 9.51534-1.4264  1
GRID     10120   1       6.36481 8.94828-1.38041 1
GRID     10121   1       6.23808 12.2164-1.39622 1
GRID     10122   1       5.86621 13.0039-1.44076 1
GRID     10123   1       6.13244 15.6084-1.40916 1
GRID     10124   1       5.4956  13.8979-1.4824  1
GRID     10125   1       5.76635 16.6272-1.45225 1
GRID     10126   1       6.049   19.1066-1.41922 1
GRID     10127   1       5.69031 20.3626-1.46087 1
GRID     10128   1       5.40233 17.7837-1.49244 1
GRID     10129   1       5.33472 21.7868-1.49961 1
GRID     10130   1       5.12652 14.9209-1.52113 1
GRID     10131   1       5.04083 19.1066-1.52973 1
GRID     10132   1       4.75933 16.1021-1.55696 1
GRID     10133   1       4.86494 11.7415-1.54693 1
GRID     10134   1       4.49253 12.7305-1.58131 1
GRID     10135   1       4.62    8.21321-1.56985 1
GRID     10136   1       4.99744 7.58909-1.53403 1
GRID     10137   1       4.77456 3.96324-1.55553 1
GRID     10138   1       4.95367 0.     -1.53833 1
GRID     10139   1       5.15477 3.6705 -1.51826 1
GRID     10140   1       5.33472 0.     -1.49961 1
GRID     10141   1       5.37539 7.05268-1.49531 1
GRID     10142   1       5.53509 3.41798-1.47809 1
GRID     10143   1       5.71577 0.     -1.458   1
GRID     10144   1       5.91551 3.19794-1.43502 1
GRID     10145   1       5.75375 6.58678-1.45369 1
GRID     10146   1       6.13244 6.17839-1.40916 1
GRID     10147   1       5.94    30.    -1.43215 1
GRID     10148   1       6.27289 28.2595-1.39191 1
GRID     10149   1       6.61099 26.6957-1.34877 1
GRID     10150   1       6.95353 25.285 -1.3027  1
GRID     10151   1       6.93262 28.4252-1.30558 1
GRID     10152   1       6.6     30.    -1.3502  1
GRID     10153   1       6.93262 31.5748-1.30558 1
GRID     10154   1       6.27289 31.7405-1.39191 1
GRID     10155   1       6.61099 33.3043-1.34877 1
GRID     10156   1       6.95353 34.715 -1.3027  1
GRID     10157   1       6.64385 36.5868-1.34445 1
GRID     10158   1       6.296   35.2087-1.38903 1
GRID     10159   1       6.34196 38.6391-1.38328 1
GRID     10160   1       5.95221 33.6705-1.43071 1
GRID     10161   1       5.98869 37.3111-1.4264  1
GRID     10162   1       5.63904 35.8175-1.46661 1
GRID     10163   1       5.61324 31.9451-1.46948 1
GRID     10164   1       5.29373 34.1278-1.50392 1
GRID     10165   1       5.28    30.    -1.50535 1
GRID     10166   1       5.61323 28.0549-1.46948 1
GRID     10167   1       5.29373 25.8722-1.50392 1
GRID     10168   1       5.63904 24.1825-1.46661 1
GRID     10169   1       5.95221 26.3295-1.43071 1
GRID     10170   1       5.98869 22.6889-1.4264  1
GRID     10171   1       6.34196 21.3609-1.38328 1
GRID     10172   1       6.296   24.7913-1.38903 1
GRID     10173   1       6.64385 23.4132-1.34445 1
GRID     10175   1       7.41827 41.8568-1.23641 1
GRID     10176   1       7.70628 39.966 -1.19313 1
GRID     10177   1       8.00207 38.2132-1.14693 1
GRID     10178   1       8.06533 40.8934-1.13681 1
GRID     10179   1       7.78129 42.7305-1.18159 1
GRID     10180   1       8.14594 43.5262-1.12381 1
GRID     10181   1       7.50584 44.7047-1.22343 1
GRID     10182   1       7.87403 45.4361-1.16715 1
GRID     10183   1       8.2434  46.1021-1.10791 1
GRID     10184   1       7.98391 48.073 -1.14982 1
GRID     10194   1       6.41027 42.0083-1.37466 1
GRID     10195   1       6.69827 39.8264-1.33725 1
GRID     10196   1       7.05717 40.8934-1.2883  1
GRID     10197   1       6.99517 37.8271-1.29694 1
GRID     10198   1       7.29989 35.9926-1.25371 1
GRID     10199   1       7.34945 38.9483-1.24651 1
GRID     10200   1       7.64955 37.1538-1.20179 1
GRID     10202   1       8.84796 51.5574-1.00492 1
GRID     10203   1       9.10545 49.5598-.958782 1
GRID     10204   1       9.35712 47.7837-.912361 1
GRID     10205   1       9.48044 49.9771-.889132 1
GRID     10206   1       9.24    51.7868-.934124 1
GRID     10207   1       9.6173  52.1111-.862991 1
GRID     10208   1       9.10639 53.1825-.958612 1
GRID     10209   1       9.24983 54.4534-.93231  1
GRID     10210   1       9.76711 54.1825-.833926 1
GRID     10211   1       9.54912 56.0368-.876061 1
GRID     10223   1       8.54058 50.2854-1.05822 1
GRID     10224   1       8.35711 48.6129-1.08911 1
GRID     10225   1       8.61378 46.7109-1.04571 1
GRID     10226   1       8.73098 49.1066-1.02544 1
GRID     10227   1       8.98506 47.2695-.980527 1
GRID     10229   1       10.4841 58.1962-.68835  1
GRID     10230   1       10.5735 56.4233-.669455 1
GRID     10231   1       10.845  54.7624-.611004 1
GRID     10232   1       10.845  58.0359-.611004 1
GRID     10233   1       10.845  60.    -.611001 1
GRID     10237   1       10.1033 58.1282-.767015 1
GRID     10238   1       9.92929 56.1887-.801937 1
GRID     10239   1       10.1463 54.4006-.758279 1
GRID     10240   1       10.3095 56.3295-.724785 1
GRID     10241   1       10.5256 54.603 -.679602 1
GRID     10242   1       6.85892 0.     -1.31566 1
GRID     10243   1       7.23997 0.     -1.26236 1
GRID     10244   1       7.62102 0.     -1.20612 1
GRID     10245   1       8.00207 0.     -1.14693 1
GRID     10246   1       7.81852 2.41903-1.17581 1
GRID     10247   1       7.43782 2.54292-1.23353 1
GRID     10248   1       7.64955 4.94961-1.20179 1
GRID     10249   1       7.05717 2.68018-1.2883  1
GRID     10250   1       7.26999 5.20872-1.25804 1
GRID     10251   1       7.49616 7.58909-1.22488 1
GRID     10252   1       7.11862 7.99414-1.27965 1
GRID     10253   1       6.8906  5.49637-1.31134 1
GRID     10254   1       6.74148 8.44454-1.3315  1
GRID     10255   1       6.67656 2.8331 -1.34013 1
GRID     10256   1       6.51141 5.81753-1.36171 1
GRID     10257   1       6.296   3.00449-1.38903 1
GRID     10258   1       6.47787-6.472-8-1.36603 1
GRID     10259   1       6.09682 1.425-7-1.41347 1
GRID     10260   1       7.13899 16.1021-1.27677 1
GRID     10261   1       7.50584 15.2953-1.22343 1
GRID     10262   1       7.87403 14.5639-1.16715 1
GRID     10263   1       8.2434  13.8979-1.10791 1
GRID     10264   1       8.14594 16.4738-1.12381 1
GRID     10265   1       7.78129 17.2695-1.18159 1
GRID     10266   1       8.06533 19.1066-1.13682 1
GRID     10267   1       7.41827 18.1432-1.23641 1
GRID     10268   1       7.70628 20.034 -1.19313 1
GRID     10269   1       8.00207 21.7868-1.14693 1
GRID     10270   1       7.64955 22.8462-1.20179 1
GRID     10271   1       7.34945 21.0517-1.24651 1
GRID     10272   1       7.29989 24.0075-1.25371 1
GRID     10273   1       7.05717 19.1066-1.2883  1
GRID     10274   1       6.99517 22.1729-1.29694 1
GRID     10275   1       6.69827 20.1736-1.33725 1
GRID     10276   1       6.77371 16.9961-1.32718 1
GRID     10277   1       6.41027 17.9917-1.37466 1
GRID     10278   1       6.50025 14.7047-1.36315 1
GRID     10279   1       6.8695  13.8979-1.31422 1
GRID     10280   1       6.61099 11.5175-1.34877 1
GRID     10281   1       6.98478 10.8934-1.29838 1
GRID     10282   1       7.23997 13.1736-1.26236 1
GRID     10283   1       7.35932 10.3327-1.24507 1
GRID     10284   1       7.73449 9.82643-1.18881 1
GRID     10285   1       7.61149 12.5198-1.20757 1
GRID     10286   1       7.98391 11.927 -1.14982 1
GRID     10287   1       7.92    30.    -1.15993 1
GRID     10288   1       8.2522  28.6771-1.10646 1
GRID     10289   1       8.58846 27.4571-1.05005 1
GRID     10290   1       8.92831 26.3295-.990671 1
GRID     10291   1       8.91204 28.775 -.993571 1
GRID     10292   1       8.58    30.    -1.0515  1
GRID     10293   1       8.91204 31.225 -.993571 1
GRID     10294   1       8.2522  31.323 -1.10646 1
GRID     10295   1       8.58846 32.5429-1.05005 1
GRID     10296   1       8.92831 33.6705-.990671 1
GRID     10297   1       8.61378 35.0759-1.04571 1
GRID     10298   1       8.26978 33.9632-1.10357 1
GRID     10299   1       8.30482 36.5868-1.09779 1
GRID     10300   1       7.92916 32.7545-1.15848 1
GRID     10301   1       7.95658 35.4964-1.15415 1
GRID     10302   1       7.61149 34.3066-1.20757 1
GRID     10303   1       7.59239 31.438 -1.21045 1
GRID     10304   1       7.26999 33.0045-1.25804 1
GRID     10305   1       7.26    30.    -1.25948 1
GRID     10306   1       7.59239 28.5621-1.21045 1
GRID     10307   1       7.26999 26.9955-1.25804 1
GRID     10308   1       7.61149 25.6934-1.20757 1
GRID     10309   1       7.92916 27.2455-1.15848 1
GRID     10310   1       7.95658 24.5036-1.15415 1
GRID     10311   1       8.30482 23.4132-1.09779 1
GRID     10312   1       8.26978 26.0368-1.10357 1
GRID     10313   1       8.61378 24.9241-1.04571 1
GRID     10314   1       9.0735  40.8934-.964581 1
GRID     10315   1       9.36487 39.367 -.910908 1
GRID     10316   1       9.66248 37.9337-.854273 1
GRID     10317   1       9.96578 36.5868-.794663 1
GRID     10318   1       10.0167 38.7525-.784477 1
GRID     10319   1       9.72241 40.1583-.842647 1
GRID     10320   1       10.0817 40.8934-.77138  1
GRID     10321   1       9.43438 41.6509-.897843 1
GRID     10322   1       9.7968  42.3525-.828111 1
GRID     10323   1       10.1606 43.0039-.755367 1
GRID     10324   1       9.88532 44.5105-.810661 1
GRID     10325   1       9.51866 43.8979-.881873 1
GRID     10326   1       9.6173  46.1021-.862988 1
GRID     10327   1       9.15316 43.2363-.950079 1
GRID     10328   1       9.24785 45.5351-.932674 1
GRID     10329   1       8.87939 44.9209-.999367 1
GRID     10330   1       8.78899 42.5198-1.0153  1
GRID     10331   1       8.51204 44.2536-1.06307 1
GRID     10332   1       8.42632 41.7415-1.07754 1
GRID     10333   1       8.71433 40.0733-1.02833 1
GRID     10334   1       8.35711 39.1829-1.08911 1
GRID     10335   1       8.65582 37.5891-1.03847 1
GRID     10336   1       9.00926 38.513 -.976178 1
GRID     10337   1       8.96078 36.1027-.984874 1
GRID     10338   1       9.27138 34.715 -.928322 1
GRID     10339   1       9.31045 37.0527-.921066 1
GRID     10340   1       9.6173  35.6847-.862991 1
GRID     10341   1       10.4772 49.1066-.689809 1
GRID     10342   1       10.845  47.6581-.611004 1
GRID     10343   1       10.845  45.882 -.611004 1
GRID     10344   1       10.845  49.4342-.611001 1
GRID     10345   1       10.845  51.2103-.611001 1
GRID     10346   1       10.608  51.0517-.6621   1
GRID     10347   1       10.845  52.9863-.611001 1
GRID     10348   1       10.3727 52.6889-.711673 1
GRID     10349   1       10.2318 50.7198-.740807 1
GRID     10350   1       9.99488 52.4109-.788842 1
GRID     10351   1       9.8559  50.3626-.816479 1
GRID     10352   1       10.1033 48.6982-.767012 1
GRID     10353   1       9.72987 48.2585-.841194 1
GRID     10354   1       9.98761 46.6272-.790298 1
GRID     10355   1       10.3587 47.1147-.714585 1
GRID     10356   1       10.253  45.0791-.736436 1
GRID     10357   1       10.5256 43.6102-.679602 1
GRID     10358   1       10.6217 45.6084-.659185 1
GRID     10359   1       10.845  44.106 -.611001 1
GRID     10360   1       8.63062 6.58678-1.04281 1
GRID     10361   1       9.00926 6.3088 -.976178 1
GRID     10362   1       9.3881  6.05325-.906555 1
GRID     10363   1       9.76711 5.81753-.833926 1
GRID     10364   1       9.6173  7.8889 -.862991 1
GRID     10365   1       9.24    8.21321-.934124 1
GRID     10366   1       9.48044 10.0229-.889135 1
GRID     10367   1       8.86303 8.56512-1.00226 1
GRID     10368   1       9.10545 10.4403-.958782 1
GRID     10369   1       9.35712 12.2164-.912361 1
GRID     10370   1       8.98505 12.7305-.980527 1
GRID     10371   1       8.73098 10.8934-1.02544 1
GRID     10372   1       8.61378 13.2891-1.04571 1
GRID     10373   1       8.48641 8.94828-1.06741 1
GRID     10374   1       8.3571  11.3871-1.08911 1
GRID     10375   1       8.11022 9.367  -1.12959 1
GRID     10376   1       8.2522  6.89026-1.10646 1
GRID     10377   1       7.87403 7.2229 -1.16715 1
GRID     10378   1       8.02925 4.715  -1.1426  1
GRID     10379   1       8.40907 4.50159-1.08044 1
GRID     10380   1       8.19924 2.30664-1.11514 1
GRID     10381   1       8.38313 0.     -1.08477 1
GRID     10382   1       8.58    2.20423-1.0515  1
GRID     10383   1       8.76418 0.     -1.01964 1
GRID     10384   1       8.78899 4.30662-1.0153  1
GRID     10385   1       8.96078 2.11052-.984874 1
GRID     10386   1       9.14523 0.     -.951529 1
GRID     10387   1       9.34158 2.02445-.915263 1
GRID     10388   1       9.16901 4.12781-.94718  1
GRID     10389   1       9.54912 3.96324-.876064 1
GRID     10390   1       9.0735  19.1066-.964581 1
GRID     10391   1       9.43438 18.3491-.897846 1
GRID     10392   1       9.7968  17.6475-.828111 1
GRID     10393   1       10.1606 16.9961-.75537  1
GRID     10394   1       10.0817 19.1066-.77138  1
GRID     10395   1       9.72241 19.8417-.842647 1
GRID     10396   1       10.0167 21.2475-.784477 1
GRID     10397   1       9.36487 20.633 -.910908 1
GRID     10398   1       9.66248 22.0663-.854273 1
GRID     10399   1       9.96578 23.4132-.794663 1
GRID     10400   1       9.6173  24.3153-.862988 1
GRID     10401   1       9.31045 22.9473-.921069 1
GRID     10402   1       9.27138 25.285 -.928322 1
GRID     10403   1       9.00926 21.487 -.976178 1
GRID     10404   1       8.96078 23.8973-.984874 1
GRID     10405   1       8.65582 22.4109-1.03847 1
GRID     10406   1       8.71433 19.9267-1.02834 1
GRID     10407   1       8.35711 20.8171-1.08911 1
GRID     10408   1       8.42632 18.2585-1.07754 1
GRID     10409   1       8.78899 17.4802-1.0153  1
GRID     10410   1       8.51204 15.7464-1.06307 1
GRID     10411   1       8.87939 15.0791-.999364 1
GRID     10412   1       9.15316 16.7637-.950079 1
GRID     10413   1       9.24785 14.465 -.932674 1
GRID     10414   1       9.6173  13.8979-.862991 1
GRID     10415   1       9.51866 16.1021-.881873 1
GRID     10416   1       9.88532 15.4896-.810661 1
GRID     10417   1       9.9     30.    -.807755 1
GRID     10418   1       10.2318 28.933 -.740807 1
GRID     10419   1       10.5669 27.9334-.670854 1
GRID     10420   1       10.845  29.    -.611001 1
GRID     10421   1       10.56   30.    -.67231  1
GRID     10422   1       10.845  31.0001-.611004 1
GRID     10423   1       10.2318 31.067 -.740807 1
GRID     10424   1       10.5669 32.0666-.670854 1
GRID     10425   1       10.845  33.2106-.611001 1
GRID     10426   1       10.5875 34.1278-.666477 1
GRID     10427   1       10.246  33.1979-.737892 1
GRID     10428   1       10.2743 35.3201-.732068 1
GRID     10429   1       9.90733 32.2042-.806299 1
GRID     10430   1       9.92929 34.402 -.801934 1
GRID     10431   1       9.58705 33.418 -.868803 1
GRID     10432   1       9.5719  31.1405-.871705 1
GRID     10433   1       9.24785 32.3615-.932674 1
GRID     10434   1       9.24    30.    -.934127 1
GRID     10435   1       9.5719  28.8595-.871705 1
GRID     10436   1       9.24785 27.6385-.932674 1
GRID     10437   1       9.58705 26.582 -.8688   1
GRID     10438   1       9.90733 27.7958-.806299 1
GRID     10439   1       9.92929 25.5981-.801937 1
GRID     10440   1       10.2743 24.6799-.732068 1
GRID     10441   1       10.246  26.8021-.737892 1
GRID     10442   1       10.5875 25.8722-.666477 1
GRID     10443   1       10.845  38.6583-.611004 1
GRID     10444   1       10.845  42.2901-.611001 1
GRID     10445   1       10.845  40.4742-.611004 1
GRID     10446   1       10.4425 41.5778-.697098 1
GRID     10447   1       10.3727 39.5153-.711673 1
GRID     10448   1       10.6694 38.2132-.648972 1
GRID     10449   1       10.3166 37.4277-.723326 1
GRID     10450   1       10.6217 36.1784-.659185 1
GRID     10451   1       10.845  36.8424-.611004 1
GRID     10452   1       10.845  35.0265-.611001 1
GRID     10453   1       10.5256 5.39703-.679605 1
GRID     10454   1       10.1463 5.59942-.75827  1
GRID     10455   1       10.5256 16.3898-.679593 1
GRID     10456   1       2.925   60.    -1.69587 1
GRID     10457   1       2.925   0.     -1.69587 1
GRID     10458   1       10.845  56.5083-.611001 1
GRID     10459   1       10.845  26.7894-.611001 1
GRID     10460   1       10.2884 1.102-5-.72915  1
GRID     10461   1       10.4841 1.80376-.688353 1
GRID     10462   1       10.5735 3.5767 -.669446 1
GRID     10463   1       10.845  5.23762-.611007 1
GRID     10464   1       10.845  1.96409-.611007 1
GRID     10465   1       10.845  1.162-6-.611001 1
GRID     10466   1       9.90733 1.128-5-.806299 1
GRID     10467   1       9.52628 1.156-5-.88042  1
GRID     10468   1       9.72241 1.94513-.842647 1
GRID     10469   1       10.1033 1.87178-.767006 1
GRID     10470   1       9.92929 3.81127-.801937 1
GRID     10471   1       10.3095 3.67051-.724779 1
GRID     10472   1       10.4772 10.8934-.689806 1
GRID     10473   1       10.845  12.3419-.610995 1
GRID     10474   1       10.845  14.118 -.61101  1
GRID     10475   1       10.845  10.5658-.611007 1
GRID     10476   1       10.845  8.78974-.61101  1
GRID     10477   1       10.608  8.94829-.662103 1
GRID     10478   1       10.845  7.01367-.611013 1
GRID     10479   1       10.3727 7.31112-.711667 1
GRID     10480   1       10.2318 9.28019-.740798 1
GRID     10481   1       9.99488 7.5891 -.788842 1
GRID     10482   1       9.8559  9.63742-.816479 1
GRID     10483   1       10.1033 11.3018-.767015 1
GRID     10484   1       9.72987 11.7415-.841194 1
GRID     10485   1       9.98761 13.3728-.790298 1
GRID     10486   1       10.3587 12.8854-.714575 1
GRID     10487   1       10.253  14.9209-.736436 1
GRID     10488   1       10.6217 14.3916-.659182 1
GRID     10489   1       10.845  15.894 -.611001 1
GRID     10490   1       10.845  21.3417-.611007 1
GRID     10491   1       10.845  17.7099-.61101  1
GRID     10492   1       10.845  19.5258-.611004 1
GRID     10493   1       10.4425 18.4222-.697098 1
GRID     10494   1       10.3727 20.4847-.711673 1
GRID     10495   1       10.6694 21.7868-.648972 1
GRID     10496   1       10.3166 22.5723-.723326 1
GRID     10497   1       10.6217 23.8216-.659185 1
GRID     10498   1       10.845  23.1576-.611001 1
GRID     10499   1       10.845  24.9735-.611001 1
GRID     10500   1       10.845  3.49174-.610995 1
GRID     10501   1       11.     1.146-6-.57694  1
GRID     10502   1       11.     1.96409-.57695  1
GRID     10503   1       11.     58.0359-.57694  1
GRID     10504   1       11.     60.    -.57694  1
GRID     10505   1       11.     56.5083-.57694  1
GRID     10506   1       11.     54.7624-.57694  1
GRID     10507   1       11.     52.9863-.57694  1
GRID     10508   1       11.     51.2103-.57694  1
GRID     10509   1       11.     49.4342-.57694  1
GRID     10510   1       11.     47.6581-.57694  1
GRID     10511   1       11.     45.882 -.57694  1
GRID     10512   1       11.     44.106 -.57694  1
GRID     10513   1       11.     42.2901-.57694  1
GRID     10514   1       11.     40.4742-.57694  1
GRID     10515   1       11.     38.6583-.57694  1
GRID     10516   1       11.     36.8424-.57694  1
GRID     10517   1       11.     35.0265-.57694  1
GRID     10518   1       11.     33.2106-.57694  1
GRID     10519   1       11.     31.0001-.57694  1
GRID     10520   1       11.     29.    -.57694  1
GRID     10521   1       11.     26.7894-.57694  1
GRID     10522   1       11.     24.9735-.57694  1
GRID     10523   1       11.     23.1576-.57694  1
GRID     10524   1       11.     21.3417-.57694  1
GRID     10525   1       11.     19.5258-.57694  1
GRID     10526   1       11.     17.7099-.57694  1
GRID     10527   1       11.     15.894 -.576934 1
GRID     10528   1       11.     14.118 -.576931 1
GRID     10529   1       11.     12.3419-.576937 1
GRID     10530   1       11.     10.5658-.57694  1
GRID     10531   1       11.     8.78974-.576943 1
GRID     10532   1       11.     7.01367-.576937 1
GRID     10533   1       11.     5.23762-.576934 1
GRID     10534   1       11.     3.49174-.576937 1
GRID     10535   1       2.925   80.    -1.69587 1
GRID     10536   1       2.925   86.6668-1.69587 1
GRID     10537   1       2.925   93.3336-1.69587 1
GRID     10538   1       2.925   100.   -1.69587 1
GRID     10539   1       2.925   106.667-1.69587 1
GRID     10540   1       2.925   73.3336-1.69587 1
GRID     10541   1       4.1217  106.102-1.61281 1
GRID     10542   1       4.24321 111.052-1.60279 1
GRID     10543   1       4.3945  115.693-1.58991 1
GRID     10544   1       4.57261 120.   -1.57415 1
GRID     10545   1       2.925   113.334-1.69587 1
GRID     10546   1       3.38686 103.004-1.66717 1
GRID     10547   1       3.75292 104.705-1.64143 1
GRID     10548   1       5.71577 120.   -1.458   1
GRID     10549   1       4.3945  64.3066-1.58991 1
GRID     10550   1       4.24321 68.9483-1.60279 1
GRID     10551   1       4.1217  73.8979-1.61281 1
GRID     10552   1       3.75292 75.2953-1.64143 1
GRID     10553   1       3.38686 76.9961-1.66717 1
GRID     10554   1       2.925   66.6668-1.69587 1
GRID     10556   1       4.95367 87.7958-1.53833 1
GRID     10557   1       4.95367 92.2042-1.53833 1
GRID     10558   1       4.98289 96.5868-1.53546 1
GRID     10559   1       4.68244 99.367 -1.56412 1
GRID     10560   1       4.3945  102.52 -1.58991 1
GRID     10561   1       4.3945  77.4802-1.58991 1
GRID     10563   1       6.049   100.893-1.41922 1
GRID     10564   1       6.13244 104.392-1.40916 1
GRID     10565   1       6.23808 107.784-1.39622 1
GRID     10566   1       6.36481 111.052-1.38041 1
GRID     10567   1       6.13244 113.822-1.40916 1
GRID     10568   1       5.9155  116.802-1.43502 1
GRID     10569   1       5.33472 98.2132-1.49961 1
GRID     10570   1       5.69031 99.6374-1.46087 1
GRID     10571   1       7.49616 112.411-1.22488 1
GRID     10572   1       7.64955 115.05 -1.20179 1
GRID     10573   1       7.81852 117.581-1.17581 1
GRID     10574   1       8.00207 120.   -1.14693 1
GRID     10575   1       6.74148 111.556-1.3315  1
GRID     10576   1       7.11862 112.006-1.27965 1
GRID     10577   1       9.14523 120.   -.951532 1
GRID     10587   1       6.93262 88.4252-1.30558 1
GRID     10588   1       6.93262 91.5748-1.30558 1
GRID     10589   1       6.95353 94.715 -1.3027  1
GRID     10590   1       6.64385 96.5868-1.34445 1
GRID     10591   1       6.34196 98.6391-1.38328 1
GRID     10594   1       8.00207 98.2132-1.14693 1
GRID     10595   1       8.06533 100.893-1.13682 1
GRID     10596   1       8.14594 103.526-1.12381 1
GRID     10597   1       8.2434  106.102-1.10791 1
GRID     10598   1       7.98391 108.073-1.14982 1
GRID     10599   1       7.73449 110.174-1.18881 1
GRID     10600   1       7.29989 95.9926-1.25371 1
GRID     10601   1       7.64955 97.1538-1.20179 1
GRID     10602   1       9.35712 107.784-.912361 1
GRID     10603   1       9.48044 109.977-.889135 1
GRID     10604   1       9.6173  112.111-.862991 1
GRID     10605   1       9.76711 114.183-.833926 1
GRID     10606   1       9.54912 116.037-.876064 1
GRID     10607   1       9.34158 117.976-.915263 1
GRID     10608   1       8.61378 106.711-1.04571 1
GRID     10609   1       8.98505 107.27 -.980527 1
GRID     10610   1       10.845  114.762-.611004 1
GRID     10611   1       10.845  118.036-.611004 1
GRID     10612   1       10.845  120.   -.611001 1
GRID     10613   1       10.1463 114.401-.758279 1
GRID     10614   1       10.5256 114.603-.679602 1
GRID     10629   1       8.91204 88.775 -.993571 1
GRID     10630   1       8.91204 91.225 -.993571 1
GRID     10631   1       8.92831 93.6705-.990671 1
GRID     10632   1       8.61378 95.0759-1.04571 1
GRID     10633   1       8.30482 96.5868-1.09779 1
GRID     10636   1       9.96578 96.5868-.794663 1
GRID     10637   1       10.0167 98.7525-.784477 1
GRID     10638   1       10.0817 100.893-.77138  1
GRID     10639   1       10.1606 103.004-.755367 1
GRID     10640   1       9.88532 104.511-.810661 1
GRID     10641   1       9.6173  106.102-.862991 1
GRID     10642   1       9.27138 94.715 -.928322 1
GRID     10643   1       9.6173  95.6847-.862991 1
GRID     10644   1       10.845  107.658-.611007 1
GRID     10645   1       10.845  105.882-.611007 1
GRID     10646   1       10.845  109.434-.611001 1
GRID     10647   1       10.845  111.21 -.611013 1
GRID     10648   1       10.845  112.986-.611004 1
GRID     10649   1       10.5256 103.61 -.679602 1
GRID     10650   1       10.845  104.106-.611001 1
GRID     10659   1       10.1606 76.9961-.755367 1
GRID     10660   1       10.0817 79.1066-.77138  1
GRID     10661   1       10.0167 81.2475-.784477 1
GRID     10662   1       9.96578 83.4132-.794663 1
GRID     10667   1       10.845  89.    -.611013 1
GRID     10668   1       10.845  91.0001-.611013 1
GRID     10669   1       10.845  93.2106-.610998 1
GRID     10670   1       10.5875 94.1278-.666477 1
GRID     10671   1       10.2743 95.3201-.732068 1
GRID     10672   1       10.2743 84.6799-.732068 1
GRID     10673   1       10.5875 85.8722-.666477 1
GRID     10674   1       10.845  98.6583-.611004 1
GRID     10675   1       10.845  102.29 -.610995 1
GRID     10676   1       10.845  100.474-.611001 1
GRID     10677   1       10.845  96.8424-.610992 1
GRID     10678   1       10.845  95.0265-.611001 1
GRID     10681   1       10.5256 76.3898-.679602 1
GRID     10682   1       2.925   120.   -1.69587 1
GRID     10683   1       10.845  116.508-.611004 1
GRID     10684   1       10.845  86.7894-.610998 1
GRID     10685   1       10.845  65.2376-.611004 1
GRID     10686   1       10.845  61.9641-.611004 1
GRID     10687   1       10.845  72.3419-.611007 1
GRID     10688   1       10.845  74.118 -.611007 1
GRID     10689   1       10.845  70.5658-.611001 1
GRID     10690   1       10.845  68.7897-.611013 1
GRID     10691   1       10.845  67.0137-.611001 1
GRID     10692   1       10.845  75.894 -.611001 1
GRID     10693   1       10.845  81.3417-.611004 1
GRID     10694   1       10.845  77.7099-.610995 1
GRID     10695   1       10.845  79.5258-.611001 1
GRID     10696   1       10.845  83.1576-.610992 1
GRID     10697   1       10.845  84.9735-.611001 1
GRID     10699   1       2.925   140.   -1.69587 1
GRID     10700   1       2.925   146.667-1.69587 1
GRID     10701   1       2.925   153.334-1.69587 1
GRID     10702   1       2.925   160.   -1.69587 1
GRID     10703   1       2.925   166.667-1.69587 1
GRID     10704   1       2.925   133.334-1.69587 1
GRID     10705   1       4.1217  166.102-1.61281 1
GRID     10706   1       4.24321 171.052-1.60279 1
GRID     10707   1       4.3945  175.693-1.58991 1
GRID     10709   1       2.925   173.334-1.69587 1
GRID     10710   1       3.38686 163.004-1.66717 1
GRID     10711   1       3.75292 164.705-1.64143 1
GRID     10713   1       4.3945  124.307-1.58991 1
GRID     10714   1       4.24321 128.948-1.60279 1
GRID     10715   1       4.1217  133.898-1.61281 1
GRID     10716   1       3.75292 135.295-1.64143 1
GRID     10717   1       3.38686 136.996-1.66717 1
GRID     10718   1       2.925   126.667-1.69587 1
GRID     10719   1       4.98289 143.413-1.53546 1
GRID     10720   1       4.95367 147.796-1.53833 1
GRID     10721   1       4.95367 152.204-1.53833 1
GRID     10722   1       4.98289 156.587-1.53546 1
GRID     10723   1       4.68244 159.367-1.56412 1
GRID     10724   1       4.3945  162.52 -1.58991 1
GRID     10725   1       4.3945  137.48 -1.58991 1
GRID     10726   1       4.68244 140.633-1.56412 1
GRID     10727   1       6.049   160.893-1.41922 1
GRID     10728   1       6.13244 164.392-1.40916 1
GRID     10733   1       5.33472 158.213-1.49961 1
GRID     10734   1       5.69031 159.637-1.46087 1
GRID     10742   1       6.36481 128.948-1.38041 1
GRID     10743   1       6.23808 132.216-1.39622 1
GRID     10744   1       6.13244 135.608-1.40916 1
GRID     10745   1       6.049   139.107-1.41922 1
GRID     10746   1       5.69031 140.363-1.46087 1
GRID     10747   1       5.33472 141.787-1.49961 1
GRID     10748   1       4.95367 120.   -1.53833 1
GRID     10749   1       5.33472 120.   -1.49961 1
GRID     10750   1       5.91551 123.198-1.43502 1
GRID     10751   1       6.13244 126.178-1.40916 1
GRID     10752   1       6.95353 145.285-1.3027  1
GRID     10753   1       6.93262 148.425-1.30558 1
GRID     10754   1       6.93262 151.575-1.30558 1
GRID     10755   1       6.95353 154.715-1.3027  1
GRID     10756   1       6.64385 156.587-1.34445 1
GRID     10757   1       6.34196 158.639-1.38328 1
GRID     10758   1       6.34196 141.361-1.38328 1
GRID     10759   1       6.64385 143.413-1.34445 1
GRID     10760   1       8.00207 158.213-1.14693 1
GRID     10761   1       8.06533 160.893-1.13682 1
GRID     10762   1       8.14594 163.526-1.12381 1
GRID     10763   1       8.2434  166.102-1.10791 1
GRID     10764   1       7.98391 168.073-1.14982 1
GRID     10766   1       7.29989 155.993-1.25371 1
GRID     10767   1       7.64955 157.154-1.20179 1
GRID     10768   1       9.35712 167.784-.912361 1
GRID     10769   1       9.48044 169.977-.889135 1
GRID     10774   1       8.61378 166.711-1.04571 1
GRID     10775   1       8.98505 167.27 -.980527 1
GRID     10776   1       10.845  174.762-.611007 1
GRID     10777   1       10.845  178.036-.611007 1
GRID     10778   1       10.845 -180.   -.611001 1
GRID     10780   1       10.5256 174.603-.679605 1
GRID     10781   1       7.81852 122.419-1.17581 1
GRID     10782   1       7.64955 124.95 -1.20179 1
GRID     10783   1       7.49616 127.589-1.22488 1
GRID     10784   1       7.11862 127.994-1.27965 1
GRID     10785   1       6.74148 128.445-1.3315  1
GRID     10786   1       8.2434  133.898-1.10791 1
GRID     10787   1       8.14594 136.474-1.12381 1
GRID     10788   1       8.06533 139.107-1.13681 1
GRID     10789   1       8.00207 141.787-1.14693 1
GRID     10790   1       7.64955 142.846-1.20179 1
GRID     10791   1       7.29989 144.007-1.25371 1
GRID     10792   1       7.73449 129.826-1.18881 1
GRID     10793   1       7.98391 131.927-1.14982 1
GRID     10794   1       8.92831 146.33 -.990671 1
GRID     10795   1       8.91204 148.775-.993571 1
GRID     10796   1       8.91204 151.225-.993571 1
GRID     10797   1       8.92831 153.671-.990671 1
GRID     10798   1       8.61378 155.076-1.04571 1
GRID     10799   1       8.30482 156.587-1.09779 1
GRID     10800   1       8.30482 143.413-1.09779 1
GRID     10801   1       8.61378 144.924-1.04571 1
GRID     10802   1       9.96578 156.587-.794663 1
GRID     10803   1       10.0167 158.753-.784477 1
GRID     10804   1       10.0817 160.893-.77138  1
GRID     10805   1       10.1606 163.004-.755367 1
GRID     10806   1       9.88532 164.51 -.810661 1
GRID     10807   1       9.6173  166.102-.862991 1
GRID     10808   1       9.27138 154.715-.928322 1
GRID     10809   1       9.6173  155.685-.862988 1
GRID     10810   1       10.845  167.658-.610995 1
GRID     10811   1       10.845  165.882-.61101  1
GRID     10812   1       10.845  169.434-.611007 1
GRID     10813   1       10.845  171.21 -.61101  1
GRID     10814   1       10.845  172.986-.611013 1
GRID     10815   1       10.5256 163.61 -.679593 1
GRID     10816   1       10.845  164.106-.611001 1
GRID     10817   1       9.76711 125.818-.833926 1
GRID     10818   1       9.6173  127.889-.862991 1
GRID     10819   1       9.48044 130.023-.889132 1
GRID     10820   1       9.35712 132.216-.912361 1
GRID     10821   1       8.98505 132.731-.980527 1
GRID     10822   1       8.61378 133.289-1.04571 1
GRID     10823   1       8.38313 120.   -1.08478 1
GRID     10824   1       8.76418 120.   -1.01964 1
GRID     10825   1       9.34158 122.024-.915263 1
GRID     10826   1       9.54912 123.963-.876061 1
GRID     10827   1       10.1606 136.996-.755367 1
GRID     10828   1       10.0817 139.107-.77138  1
GRID     10829   1       10.0167 141.248-.784477 1
GRID     10830   1       9.96578 143.413-.79466  1
GRID     10831   1       9.6173  144.315-.862991 1
GRID     10832   1       9.27138 145.285-.928322 1
GRID     10833   1       9.6173  133.898-.862988 1
GRID     10834   1       9.88532 135.49 -.810661 1
GRID     10835   1       10.845  149.   -.611004 1
GRID     10836   1       10.845  151.   -.611001 1
GRID     10837   1       10.845  153.211-.611001 1
GRID     10838   1       10.5875 154.128-.666477 1
GRID     10839   1       10.2743 155.32 -.732068 1
GRID     10840   1       10.2743 144.68 -.732068 1
GRID     10841   1       10.5875 145.872-.666477 1
GRID     10842   1       10.845  158.658-.611007 1
GRID     10843   1       10.845  162.29 -.61101  1
GRID     10844   1       10.845  160.474-.611004 1
GRID     10845   1       10.845  156.842-.611004 1
GRID     10846   1       10.845  155.027-.611001 1
GRID     10847   1       10.5256 125.397-.679602 1
GRID     10848   1       10.1463 125.599-.758279 1
GRID     10849   1       10.5256 136.39 -.679602 1
GRID     10850   1       2.925   180.   -1.69587 1
GRID     10851   1       10.845  176.508-.610995 1
GRID     10852   1       10.845  146.789-.611001 1
GRID     10853   1       10.845  125.238-.611001 1
GRID     10854   1       10.845  121.964-.611004 1
GRID     10855   1       10.845  132.342-.611004 1
GRID     10856   1       10.845  134.118-.611001 1
GRID     10857   1       10.845  130.566-.611001 1
GRID     10858   1       10.845  128.79 -.611001 1
GRID     10859   1       10.845  127.014-.611004 1
GRID     10860   1       10.845  135.894-.611004 1
GRID     10861   1       10.845  141.342-.611004 1
GRID     10862   1       10.845  137.71 -.611004 1
GRID     10863   1       10.845  139.526-.611001 1
GRID     10864   1       10.845  143.158-.611004 1
GRID     10865   1       10.845  144.974-.611001 1
GRID     10866   1       10.845  123.492-.611004 1
GRID     10867   1       2.925  -160.   -1.69587 1
GRID     10868   1       2.925  -153.333-1.69587 1
GRID     10869   1       2.925  -146.666-1.69587 1
GRID     10870   1       2.925  -140.   -1.69587 1
GRID     10871   1       2.925  -133.333-1.69587 1
GRID     10872   1       2.925  -166.666-1.69587 1
GRID     10873   1       4.1217 -133.898-1.61281 1
GRID     10874   1       4.24321-128.948-1.60279 1
GRID     10875   1       4.3945 -124.307-1.58991 1
GRID     10876   1       4.57261-120.   -1.57415 1
GRID     10877   1       2.925  -126.666-1.69587 1
GRID     10878   1       3.38686-136.996-1.66717 1
GRID     10879   1       3.75292-135.295-1.64143 1
GRID     10880   1       5.71577-120.   -1.458   1
GRID     10881   1       4.3945 -175.693-1.58991 1
GRID     10882   1       4.24321-171.052-1.60279 1
GRID     10883   1       4.1217 -166.102-1.61281 1
GRID     10884   1       3.75292-164.705-1.64143 1
GRID     10885   1       3.38686-163.004-1.66717 1
GRID     10886   1       2.925  -173.333-1.69587 1
GRID     10888   1       4.95367-152.204-1.53833 1
GRID     10889   1       4.95367-147.796-1.53833 1
GRID     10890   1       4.98289-143.413-1.53546 1
GRID     10891   1       4.68244-140.633-1.56412 1
GRID     10892   1       4.3945 -137.48 -1.58991 1
GRID     10893   1       4.3945 -162.52 -1.58991 1
GRID     10894   1       4.68244-159.367-1.56412 1
GRID     10895   1       6.049  -139.107-1.41922 1
GRID     10896   1       6.13244-135.608-1.40916 1
GRID     10897   1       6.23808-132.216-1.39622 1
GRID     10898   1       6.36481-128.948-1.38041 1
GRID     10899   1       6.13244-126.178-1.40916 1
GRID     10900   1       5.91551-123.198-1.43502 1
GRID     10901   1       5.33472-141.787-1.49961 1
GRID     10902   1       5.69031-140.363-1.46087 1
GRID     10903   1       7.49616-127.589-1.22488 1
GRID     10904   1       7.64955-124.95 -1.20179 1
GRID     10905   1       7.81852-122.419-1.17581 1
GRID     10906   1       8.00208-120.   -1.14693 1
GRID     10907   1       6.74148-128.445-1.3315  1
GRID     10908   1       7.11862-127.994-1.27965 1
GRID     10909   1       9.14523-120.   -.951532 1
GRID     10922   1       6.93262-148.425-1.30558 1
GRID     10923   1       6.95353-145.285-1.3027  1
GRID     10924   1       6.64385-143.413-1.34445 1
GRID     10925   1       6.34196-141.361-1.38328 1
GRID     10928   1       8.00207-141.787-1.14693 1
GRID     10929   1       8.06533-139.107-1.13681 1
GRID     10930   1       8.14594-136.474-1.12381 1
GRID     10931   1       8.2434 -133.898-1.10791 1
GRID     10932   1       7.98391-131.927-1.14982 1
GRID     10933   1       7.73449-129.826-1.18881 1
GRID     10934   1       7.29989-144.007-1.25371 1
GRID     10935   1       7.64955-142.846-1.20179 1
GRID     10936   1       9.35712-132.216-.912361 1
GRID     10937   1       9.48044-130.023-.889132 1
GRID     10938   1       9.6173 -127.889-.862991 1
GRID     10939   1       9.76711-125.818-.833926 1
GRID     10940   1       9.54912-123.963-.876061 1
GRID     10941   1       9.34158-122.024-.915263 1
GRID     10942   1       8.61378-133.289-1.04571 1
GRID     10943   1       8.98506-132.731-.980527 1
GRID     10944   1       10.845 -125.238-.611004 1
GRID     10945   1       10.845 -121.964-.611004 1
GRID     10946   1       10.845 -120.   -.611001 1
GRID     10947   1       10.1463-125.599-.758279 1
GRID     10948   1       10.5256-125.397-.679602 1
GRID     10962   1       8.92831-153.671-.990671 1
GRID     10963   1       8.91204-151.225-.993571 1
GRID     10964   1       8.91204-148.775-.993571 1
GRID     10965   1       8.92831-146.33 -.990671 1
GRID     10966   1       8.61378-144.924-1.04571 1
GRID     10967   1       8.30482-143.413-1.09779 1
GRID     10969   1       8.61378-155.076-1.04571 1
GRID     10970   1       9.96578-143.413-.794663 1
GRID     10971   1       10.0167-141.248-.784477 1
GRID     10972   1       10.0817-139.107-.77138  1
GRID     10973   1       10.1606-136.996-.755367 1
GRID     10974   1       9.88532-135.49 -.810661 1
GRID     10975   1       9.6173 -133.898-.862988 1
GRID     10976   1       9.27138-145.285-.928322 1
GRID     10977   1       9.6173 -144.315-.862991 1
GRID     10978   1       10.845 -132.342-.611004 1
GRID     10979   1       10.845 -134.118-.611004 1
GRID     10980   1       10.845 -130.566-.611001 1
GRID     10981   1       10.845 -128.79 -.611001 1
GRID     10982   1       10.845 -127.014-.611001 1
GRID     10983   1       10.5256-136.39 -.679602 1
GRID     10984   1       10.845 -135.894-.611001 1
GRID     10997   1       10.0167-158.753-.784477 1
GRID     10998   1       9.96578-156.587-.794663 1
GRID     10999   1       9.6173 -155.685-.862988 1
GRID     11000   1       9.27138-154.715-.928322 1
GRID     11003   1       10.845 -151.   -.611001 1
GRID     11004   1       10.845 -149.   -.611004 1
GRID     11005   1       10.845 -146.789-.611001 1
GRID     11006   1       10.5875-145.872-.666477 1
GRID     11007   1       10.2743-144.68 -.732068 1
GRID     11008   1       10.2743-155.32 -.732068 1
GRID     11009   1       10.5875-154.128-.666477 1
GRID     11010   1       10.845 -141.342-.611004 1
GRID     11011   1       10.845 -137.71 -.611001 1
GRID     11012   1       10.845 -139.526-.611004 1
GRID     11013   1       10.845 -143.158-.611004 1
GRID     11014   1       10.845 -144.974-.611001 1
GRID     11015   1       10.5256-174.603-.679605 1
GRID     11018   1       2.925  -120.   -1.69587 1
GRID     11019   1       10.845 -123.492-.611001 1
GRID     11020   1       10.845 -153.211-.611001 1
GRID     11021   1       10.845 -174.762-.611007 1
GRID     11022   1       10.845 -178.036-.611007 1
GRID     11023   1       10.845 -167.658-.610995 1
GRID     11024   1       10.845 -165.882-.61101  1
GRID     11025   1       10.845 -169.434-.611007 1
GRID     11026   1       10.845 -171.21 -.61101  1
GRID     11027   1       10.845 -172.986-.611013 1
GRID     11028   1       10.845 -164.106-.611001 1
GRID     11029   1       10.845 -158.658-.611007 1
GRID     11031   1       10.845 -160.474-.611004 1
GRID     11032   1       10.845 -156.842-.611001 1
GRID     11033   1       10.845 -155.027-.611001 1
GRID     11034   1       10.845 -176.508-.610995 1
GRID     11035   1       2.925  -100.   -1.69587 1
GRID     11036   1       2.925  -93.3332-1.69587 1
GRID     11037   1       2.925  -86.6664-1.69587 1
GRID     11038   1       2.925  -80.    -1.69587 1
GRID     11039   1       2.925  -73.3332-1.69587 1
GRID     11040   1       2.925  -106.666-1.69587 1
GRID     11041   1       4.1217 -73.8979-1.61281 1
GRID     11042   1       4.24321-68.9483-1.60279 1
GRID     11043   1       4.3945 -64.3066-1.58991 1
GRID     11045   1       2.925  -66.6664-1.69587 1
GRID     11046   1       3.38686-76.9961-1.66717 1
GRID     11047   1       3.75292-75.2953-1.64143 1
GRID     11049   1       4.3945 -115.693-1.58991 1
GRID     11050   1       4.24321-111.052-1.60279 1
GRID     11051   1       4.1217 -106.102-1.61281 1
GRID     11052   1       3.75292-104.705-1.64143 1
GRID     11053   1       3.38686-103.004-1.66717 1
GRID     11054   1       2.925  -113.333-1.69587 1
GRID     11055   1       4.98289-96.5868-1.53546 1
GRID     11056   1       4.95367-92.2042-1.53833 1
GRID     11057   1       4.95367-87.7958-1.53833 1
GRID     11058   1       4.98289-83.4132-1.53546 1
GRID     11059   1       4.68244-80.633 -1.56412 1
GRID     11060   1       4.3945 -77.4802-1.58991 1
GRID     11061   1       4.3945 -102.52 -1.58991 1
GRID     11062   1       4.68244-99.367 -1.56412 1
GRID     11063   1       6.049  -79.1066-1.41922 1
GRID     11064   1       6.13244-75.6084-1.40916 1
GRID     11065   1       6.23808-72.2164-1.39622 1
GRID     11069   1       5.33472-81.7868-1.49961 1
GRID     11070   1       5.69031-80.3626-1.46087 1
GRID     11078   1       6.36481-111.052-1.38041 1
GRID     11079   1       6.23808-107.784-1.39622 1
GRID     11080   1       6.13244-104.392-1.40916 1
GRID     11081   1       6.049  -100.893-1.41922 1
GRID     11082   1       5.69031-99.6374-1.46087 1
GRID     11083   1       5.33472-98.2132-1.49961 1
GRID     11084   1       4.95367-120.   -1.53833 1
GRID     11085   1       5.33472-120.   -1.49961 1
GRID     11086   1       5.91551-116.802-1.43502 1
GRID     11087   1       6.13244-113.822-1.40916 1
GRID     11088   1       6.95353-94.715 -1.3027  1
GRID     11089   1       6.93262-91.5748-1.30558 1
GRID     11090   1       6.93262-88.4252-1.30558 1
GRID     11091   1       6.95353-85.285 -1.3027  1
GRID     11092   1       6.64385-83.4132-1.34445 1
GRID     11093   1       6.34196-81.3609-1.38328 1
GRID     11094   1       6.34196-98.6391-1.38328 1
GRID     11095   1       6.64385-96.5868-1.34445 1
GRID     11096   1       8.00207-81.7868-1.14693 1
GRID     11097   1       8.06533-79.1066-1.13682 1
GRID     11098   1       8.14594-76.4738-1.12381 1
GRID     11102   1       7.29989-84.0075-1.25371 1
GRID     11103   1       7.64955-82.8462-1.20179 1
GRID     11104   1       9.35712-72.2164-.912361 1
GRID     11105   1       9.48044-70.0229-.889135 1
GRID     11106   1       9.6173 -67.8889-.862991 1
GRID     11107   1       9.76711-65.8175-.833926 1
GRID     11110   1       8.61378-73.2891-1.04571 1
GRID     11112   1       10.845 -65.2376-.611004 1
GRID     11113   1       10.845 -61.9641-.611004 1
GRID     11114   1       10.845 -60.    -.611001 1
GRID     11115   1       10.1463-65.5994-.758279 1
GRID     11116   1       10.5256-65.397 -.679602 1
GRID     11117   1       7.81852-117.581-1.17581 1
GRID     11118   1       7.64955-115.05 -1.20179 1
GRID     11119   1       7.49616-112.411-1.22488 1
GRID     11120   1       7.11862-112.006-1.27965 1
GRID     11121   1       6.74148-111.556-1.3315  1
GRID     11122   1       8.2434 -106.102-1.10791 1
GRID     11123   1       8.14594-103.526-1.12381 1
GRID     11124   1       8.06533-100.893-1.13682 1
GRID     11125   1       8.00207-98.2132-1.14693 1
GRID     11126   1       7.64955-97.1538-1.20179 1
GRID     11127   1       7.29989-95.9926-1.25371 1
GRID     11128   1       7.73449-110.174-1.18881 1
GRID     11129   1       7.98391-108.073-1.14982 1
GRID     11130   1       8.92831-93.6705-.990671 1
GRID     11131   1       8.91204-91.225 -.993571 1
GRID     11132   1       8.91204-88.775 -.993571 1
GRID     11133   1       8.92831-86.3295-.990671 1
GRID     11134   1       8.61378-84.9241-1.04571 1
GRID     11135   1       8.30482-83.4132-1.09779 1
GRID     11136   1       8.30482-96.5868-1.09779 1
GRID     11137   1       8.61378-95.0759-1.04571 1
GRID     11138   1       9.96578-83.4132-.794663 1
GRID     11139   1       10.0167-81.2475-.784477 1
GRID     11140   1       10.0817-79.1066-.77138  1
GRID     11141   1       10.1606-76.9961-.755367 1
GRID     11142   1       9.88532-75.4895-.810661 1
GRID     11143   1       9.6173 -73.8979-.862991 1
GRID     11144   1       9.27138-85.285 -.928322 1
GRID     11145   1       9.6173 -84.3153-.862991 1
GRID     11146   1       10.845 -72.3419-.611007 1
GRID     11147   1       10.845 -74.118 -.611007 1
GRID     11148   1       10.845 -70.5658-.611001 1
GRID     11149   1       10.845 -68.7897-.611013 1
GRID     11150   1       10.845 -67.0137-.611004 1
GRID     11151   1       10.5256-76.3898-.679602 1
GRID     11152   1       10.845 -75.894 -.611001 1
GRID     11153   1       9.76711-114.183-.833926 1
GRID     11154   1       9.6173 -112.111-.862991 1
GRID     11155   1       9.48044-109.977-.889135 1
GRID     11156   1       9.35712-107.784-.912361 1
GRID     11157   1       8.98505-107.27 -.980527 1
GRID     11158   1       8.61378-106.711-1.04571 1
GRID     11159   1       8.38313-120.   -1.08478 1
GRID     11160   1       8.76418-120.   -1.01964 1
GRID     11161   1       9.34158-117.976-.915263 1
GRID     11162   1       9.54912-116.037-.876064 1
GRID     11163   1       10.1606-103.004-.755367 1
GRID     11164   1       10.0817-100.893-.77138  1
GRID     11165   1       10.0167-98.7525-.784477 1
GRID     11166   1       9.96578-96.5868-.794663 1
GRID     11167   1       9.6173 -95.6847-.862991 1
GRID     11168   1       9.27138-94.715 -.928322 1
GRID     11169   1       9.6173 -106.102-.862991 1
GRID     11170   1       9.88532-104.511-.810661 1
GRID     11171   1       10.845 -91.    -.611013 1
GRID     11172   1       10.845 -89.    -.611013 1
GRID     11173   1       10.845 -86.7894-.610998 1
GRID     11174   1       10.5875-85.8722-.666477 1
GRID     11175   1       10.2743-84.6799-.732068 1
GRID     11176   1       10.2743-95.3201-.732068 1
GRID     11177   1       10.5875-94.1278-.666477 1
GRID     11178   1       10.845 -81.3417-.611004 1
GRID     11179   1       10.845 -77.7099-.610995 1
GRID     11180   1       10.845 -79.5258-.611001 1
GRID     11181   1       10.845 -83.1576-.610992 1
GRID     11182   1       10.845 -84.9735-.611001 1
GRID     11183   1       10.5256-114.603-.679602 1
GRID     11184   1       10.1463-114.401-.758279 1
GRID     11185   1       10.5256-103.61 -.679602 1
GRID     11186   1       2.925  -60.    -1.69587 1
GRID     11187   1       10.845 -63.4917-.611004 1
GRID     11188   1       10.845 -93.2106-.610998 1
GRID     11189   1       10.845 -114.762-.611004 1
GRID     11190   1       10.845 -118.036-.611004 1
GRID     11191   1       10.845 -107.658-.611007 1
GRID     11192   1       10.845 -105.882-.611007 1
GRID     11193   1       10.845 -109.434-.611001 1
GRID     11194   1       10.845 -111.21 -.611013 1
GRID     11195   1       10.845 -112.986-.611001 1
GRID     11196   1       10.845 -104.106-.611001 1
GRID     11197   1       10.845 -98.6583-.611004 1
GRID     11198   1       10.845 -102.29 -.610995 1
GRID     11199   1       10.845 -100.474-.611001 1
GRID     11200   1       10.845 -96.8424-.610992 1
GRID     11201   1       10.845 -95.0265-.611001 1
GRID     11202   1       10.845 -116.508-.611001 1
GRID     11203   1       2.925  -40.    -1.69587 1
GRID     11204   1       2.925  -33.3332-1.69587 1
GRID     11205   1       2.925  -26.6664-1.69587 1
GRID     11206   1       2.925  -20.    -1.69587 1
GRID     11207   1       2.925  -13.3332-1.69587 1
GRID     11208   1       2.925  -46.6664-1.69587 1
GRID     11209   1       4.1217 -13.8979-1.61281 1
GRID     11210   1       4.24321-8.94828-1.60279 1
GRID     11211   1       4.3945 -4.30662-1.58991 1
GRID     11212   1       2.925  -6.66639-1.69587 1
GRID     11213   1       3.38686-16.9961-1.66717 1
GRID     11214   1       3.75292-15.2954-1.64143 1
GRID     11215   1       4.3945 -55.6934-1.58991 1
GRID     11216   1       4.24321-51.0517-1.60279 1
GRID     11217   1       4.1217 -46.1021-1.61281 1
GRID     11218   1       3.75292-44.7047-1.64143 1
GRID     11219   1       3.38686-43.0039-1.66717 1
GRID     11220   1       2.925  -53.3332-1.69587 1
GRID     11221   1       4.98289-36.5868-1.53546 1
GRID     11222   1       4.95367-32.2042-1.53833 1
GRID     11223   1       4.95367-27.7958-1.53833 1
GRID     11224   1       4.98289-23.4132-1.53546 1
GRID     11225   1       4.68244-20.633 -1.56412 1
GRID     11226   1       4.3945 -17.4802-1.58991 1
GRID     11227   1       4.3945 -42.5198-1.58991 1
GRID     11228   1       4.68244-39.367 -1.56412 1
GRID     11229   1       6.049  -19.1066-1.41922 1
GRID     11230   1       6.13244-15.6084-1.40916 1
GRID     11231   1       6.23808-12.2164-1.39622 1
GRID     11232   1       6.36481-8.94828-1.38041 1
GRID     11233   1       6.13244-6.17839-1.40916 1
GRID     11234   1       5.91551-3.19794-1.43502 1
GRID     11235   1       5.33472-21.7868-1.49961 1
GRID     11236   1       5.69031-20.3626-1.46087 1
GRID     11237   1       7.49616-7.58909-1.22488 1
GRID     11238   1       7.64955-4.94961-1.20179 1
GRID     11239   1       7.81852-2.41903-1.17581 1
GRID     11240   1       6.74148-8.44454-1.3315  1
GRID     11241   1       7.11862-7.99414-1.27965 1
GRID     11246   1       5.69031-39.6374-1.46087 1
GRID     11247   1       5.33472-38.2132-1.49961 1
GRID     11253   1       6.93262-31.5748-1.30558 1
GRID     11254   1       6.93262-28.4252-1.30558 1
GRID     11255   1       6.95353-25.285 -1.3027  1
GRID     11256   1       6.64386-23.4132-1.34445 1
GRID     11257   1       6.34196-21.3609-1.38328 1
GRID     11260   1       8.00207-21.7868-1.14693 1
GRID     11261   1       8.06533-19.1066-1.13682 1
GRID     11262   1       8.14594-16.4738-1.12381 1
GRID     11263   1       8.2434 -13.8979-1.10791 1
GRID     11264   1       7.98391-11.927 -1.14982 1
GRID     11265   1       7.73449-9.82643-1.18881 1
GRID     11266   1       7.29989-24.0075-1.25371 1
GRID     11267   1       7.64955-22.8462-1.20179 1
GRID     11268   1       9.35712-12.2164-.912361 1
GRID     11269   1       9.48044-10.0229-.889135 1
GRID     11270   1       9.6173 -7.8889 -.862991 1
GRID     11271   1       9.76711-5.81753-.833926 1
GRID     11272   1       9.54912-3.96324-.876064 1
GRID     11273   1       9.34159-2.02445-.915263 1
GRID     11274   1       8.61378-13.2891-1.04571 1
GRID     11275   1       8.98506-12.7305-.980527 1
GRID     11276   1       10.845 -5.23761-.611007 1
GRID     11277   1       10.845 -1.96408-.611007 1
GRID     11278   1       10.1463-5.59942-.75827  1
GRID     11279   1       10.5256-5.39703-.679605 1
GRID     11293   1       8.92831-33.6705-.990671 1
GRID     11294   1       8.91204-31.225 -.993571 1
GRID     11295   1       8.91204-28.775 -.993571 1
GRID     11296   1       8.92831-26.3295-.990671 1
GRID     11297   1       8.61378-24.9241-1.04571 1
GRID     11298   1       8.30482-23.4132-1.09779 1
GRID     11300   1       8.61378-35.0759-1.04571 1
GRID     11301   1       9.96578-23.4132-.794663 1
GRID     11302   1       10.0167-21.2475-.784477 1
GRID     11303   1       10.0817-19.1066-.77138  1
GRID     11304   1       10.1606-16.9961-.755367 1
GRID     11305   1       9.88532-15.4896-.810661 1
GRID     11306   1       9.6173 -13.8979-.862991 1
GRID     11307   1       9.27138-25.285 -.928322 1
GRID     11308   1       9.6173 -24.3153-.862988 1
GRID     11309   1       10.845 -12.3419-.610995 1
GRID     11310   1       10.845 -14.118 -.61101  1
GRID     11311   1       10.845 -10.5658-.611007 1
GRID     11312   1       10.845 -8.78973-.61101  1
GRID     11313   1       10.845 -7.01366-.611013 1
GRID     11314   1       10.5256-16.3898-.679593 1
GRID     11315   1       10.845 -15.894 -.611001 1
GRID     11326   1       10.1606-43.0039-.755367 1
GRID     11327   1       10.0817-40.8934-.77138  1
GRID     11328   1       10.0167-38.7525-.784477 1
GRID     11329   1       9.96578-36.5868-.79466  1
GRID     11330   1       9.6173 -35.6847-.862991 1
GRID     11331   1       9.27138-34.715 -.928322 1
GRID     11333   1       9.88532-44.5105-.810661 1
GRID     11334   1       10.845 -31.    -.611004 1
GRID     11335   1       10.845 -29.    -.611001 1
GRID     11336   1       10.845 -26.7894-.611001 1
GRID     11337   1       10.5875-25.8722-.666477 1
GRID     11338   1       10.2743-24.6799-.732068 1
GRID     11339   1       10.2743-35.3201-.732068 1
GRID     11340   1       10.5875-34.1278-.666477 1
GRID     11341   1       10.845 -21.3417-.611007 1
GRID     11342   1       10.845 -17.7099-.61101  1
GRID     11343   1       10.845 -19.5258-.611004 1
GRID     11344   1       10.845 -23.1576-.611004 1
GRID     11345   1       10.845 -24.9735-.611001 1
GRID     11346   1       10.5256-54.603 -.679602 1
GRID     11347   1       10.1463-54.4006-.758279 1
GRID     11348   1       10.5256-43.6102-.679602 1
GRID     11349   1       10.845 -3.49173-.610995 1
GRID     11350   1       10.845 -33.2106-.611001 1
GRID     11351   1       10.845 -54.7624-.611001 1
GRID     11352   1       10.845 -58.0359-.611004 1
GRID     11353   1       10.845 -47.6581-.611004 1
GRID     11354   1       10.845 -45.882 -.611001 1
GRID     11355   1       10.845 -49.4342-.611001 1
GRID     11356   1       10.845 -51.2103-.611001 1
GRID     11357   1       10.845 -52.9863-.611001 1
GRID     11358   1       10.845 -44.106 -.611001 1
GRID     11359   1       10.845 -38.6583-.611004 1
GRID     11360   1       10.845 -42.2901-.611004 1
GRID     11361   1       10.845 -40.4742-.611004 1
GRID     11362   1       10.845 -36.8424-.611004 1
GRID     11363   1       10.845 -35.0265-.611001 1
GRID     11364   1       10.845 -56.5083-.611004 1
GRID     11365   1       3.42946 120.   -1.66431 1
GRID     11366   1       3.635   114.791-1.65001 1
GRID     11367   1       3.86725 110.174-1.63285 1
GRID     11368   1       4.01462 115.285-1.6214  1
GRID     11369   1       3.81051 120.   -1.63714 1
GRID     11370   1       4.19156 120.   -1.60709 1
GRID     11371   1       3.2557  114.183-1.67575 1
GRID     11372   1       3.11904 107.784-1.68433 1
GRID     11373   1       3.49239 109.107-1.66003 1
GRID     11374   1       4.01462 64.715 -1.6214  1
GRID     11375   1       3.635   65.2087-1.65001 1
GRID     11376   1       3.86725 69.8264-1.63285 1
GRID     11377   1       3.49239 70.8934-1.66003 1
GRID     11378   1       3.2557  65.8175-1.67575 1
GRID     11379   1       3.11904 72.2164-1.68433 1
GRID     11380   1       3.96    90.    -1.62569 1
GRID     11381   1       4.29423 87.4571-1.5985  1
GRID     11382   1       4.63569 85.285 -1.56842 1
GRID     11383   1       4.62    90.    -1.56985 1
GRID     11384   1       4.29423 92.5429-1.5985  1
GRID     11385   1       4.63569 94.715 -1.56842 1
GRID     11386   1       4.32791 97.5891-1.59563 1
GRID     11387   1       3.97829 95.4964-1.62426 1
GRID     11388   1       4.03267 100.893-1.61997 1
GRID     11389   1       3.67472 98.9483-1.64715 1
GRID     11390   1       3.635   93.0045-1.65001 1
GRID     11391   1       3.32193 96.5868-1.67146 1
GRID     11392   1       3.3     90.    -1.67289 1
GRID     11393   1       3.635   86.9955-1.65001 1
GRID     11394   1       3.32193 83.4132-1.67146 1
GRID     11395   1       3.67472 81.0517-1.64715 1
GRID     11396   1       3.97829 84.5036-1.62426 1
GRID     11397   1       4.03267 79.1066-1.61997 1
GRID     11398   1       4.32791 82.4109-1.59563 1
GRID     11399   1       5.23859 109.107-1.50965 1
GRID     11400   1       5.4956  106.102-1.4824  1
GRID     11401   1       5.76635 103.373-1.45225 1
GRID     11402   1       5.86621 106.996-1.44076 1
GRID     11403   1       5.61323 109.842-1.46948 1
GRID     11404   1       5.98869 110.485-1.4264  1
GRID     11405   1       5.75375 113.413-1.45369 1
GRID     11406   1       5.37539 112.947-1.49531 1
GRID     11407   1       5.53509 116.582-1.47809 1
GRID     11408   1       5.15477 116.33 -1.51826 1
GRID     11409   1       4.99744 112.411-1.53403 1
GRID     11410   1       4.77456 116.037-1.55553 1
GRID     11411   1       4.62    111.787-1.56985 1
GRID     11412   1       4.86494 108.259-1.54693 1
GRID     11413   1       4.49253 107.27 -1.58131 1
GRID     11414   1       4.75933 103.898-1.55696 1
GRID     11415   1       5.12652 105.079-1.52113 1
GRID     11416   1       5.04083 100.893-1.52973 1
GRID     11417   1       5.40233 102.216-1.49244 1
GRID     11418   1       6.85892 120.   -1.31566 1
GRID     11424   1       6.47787 120.   -1.36603 1
GRID     11425   1       6.09682 120.   -1.41347 1
GRID     11426   1       6.296   116.996-1.38903 1
GRID     11427   1       6.67656 117.167-1.34013 1
GRID     11428   1       6.51141 114.183-1.36171 1
GRID     11429   1       6.8906  114.504-1.31134 1
GRID     11441   1       4.49253 72.7305-1.58131 1
GRID     11442   1       4.62    68.2132-1.56985 1
GRID     11444   1       4.77456 63.9632-1.55553 1
GRID     11449   1       5.94    90.    -1.43215 1
GRID     11450   1       6.27289 88.2595-1.39191 1
GRID     11451   1       6.61099 86.6957-1.34877 1
GRID     11452   1       6.6     90.    -1.3502  1
GRID     11453   1       6.27289 91.7405-1.39191 1
GRID     11454   1       6.61099 93.3043-1.34877 1
GRID     11455   1       6.296   95.2087-1.38903 1
GRID     11456   1       5.95221 93.6705-1.43071 1
GRID     11457   1       5.98869 97.3111-1.4264  1
GRID     11458   1       5.63904 95.8175-1.46661 1
GRID     11459   1       5.61324 91.9451-1.46948 1
GRID     11460   1       5.29373 94.1278-1.50392 1
GRID     11461   1       5.28    90.    -1.50535 1
GRID     11462   1       5.61323 88.0549-1.46948 1
GRID     11463   1       5.29373 85.8722-1.50392 1
GRID     11465   1       5.95221 86.3295-1.43071 1
GRID     11468   1       7.13899 103.898-1.27677 1
GRID     11469   1       7.41827 101.857-1.23641 1
GRID     11470   1       7.70628 99.966 -1.19313 1
GRID     11471   1       7.78129 102.731-1.18159 1
GRID     11472   1       7.50584 104.705-1.22343 1
GRID     11473   1       7.87403 105.436-1.16715 1
GRID     11474   1       7.66977 108.307-1.19163 1
GRID     11475   1       7.23997 106.826-1.26236 1
GRID     11476   1       7.35932 109.667-1.24507 1
GRID     11477   1       6.98478 109.107-1.29838 1
GRID     11478   1       6.8695  106.102-1.31422 1
GRID     11479   1       6.61099 108.483-1.34877 1
GRID     11480   1       6.50025 105.295-1.36315 1
GRID     11481   1       6.77371 103.004-1.32718 1
GRID     11482   1       6.41027 102.008-1.37466 1
GRID     11483   1       6.69827 99.8264-1.33725 1
GRID     11484   1       7.05717 100.893-1.2883  1
GRID     11485   1       6.99517 97.8271-1.29694 1
GRID     11486   1       7.34945 98.9483-1.24651 1
GRID     11488   1       8.78858 111.781-1.00307 1
GRID     11489   1       9.10545 109.56 -.958782 1
GRID     11490   1       9.24    111.787-.934124 1
GRID     11491   1       9.00926 113.691-.976178 1
GRID     11492   1       9.3881  113.947-.906555 1
GRID     11493   1       9.23813 115.498-.926065 1
GRID     11504   1       8.43335 108.267-1.0695  1
GRID     11505   1       8.73098 109.107-1.02544 1
GRID     11506   1       10.2884 120.   -.729153 1
GRID     11507   1       10.4841 118.196-.68835  1
GRID     11508   1       10.5735 116.423-.669455 1
GRID     11509   1       9.90733 120.   -.806299 1
GRID     11510   1       9.43102 120.   -.892728 1
GRID     11511   1       9.72241 118.055-.842647 1
GRID     11512   1       10.1033 118.128-.767015 1
GRID     11513   1       9.92929 116.189-.801934 1
GRID     11514   1       10.3095 116.33 -.724785 1
GRID     11541   1       7.92    90.    -1.15993 1
GRID     11542   1       8.2522  88.6771-1.10646 1
GRID     11543   1       8.58846 87.4571-1.05005 1
GRID     11544   1       8.58    90.    -1.0515  1
GRID     11545   1       8.2522  91.323 -1.10646 1
GRID     11546   1       8.58846 92.5429-1.05005 1
GRID     11547   1       8.26978 93.9632-1.10357 1
GRID     11548   1       7.92916 92.7545-1.15848 1
GRID     11549   1       7.95658 95.4964-1.15415 1
GRID     11550   1       7.61149 94.3066-1.20757 1
GRID     11551   1       7.59239 91.4379-1.21045 1
GRID     11552   1       7.26999 93.0045-1.25804 1
GRID     11553   1       7.26    90.    -1.25948 1
GRID     11554   1       7.59239 88.5621-1.21045 1
GRID     11555   1       7.26999 86.9955-1.25804 1
GRID     11557   1       7.92916 87.2455-1.15848 1
GRID     11560   1       9.0735  100.893-.964581 1
GRID     11561   1       9.36487 99.367 -.910908 1
GRID     11562   1       9.66248 97.9337-.854273 1
GRID     11563   1       9.72241 100.158-.842647 1
GRID     11564   1       9.43438 101.651-.897843 1
GRID     11565   1       9.7968  102.353-.828111 1
GRID     11566   1       9.51866 103.898-.881873 1
GRID     11567   1       9.15316 103.236-.950082 1
GRID     11568   1       9.24785 105.535-.932674 1
GRID     11569   1       8.87939 104.921-.999364 1
GRID     11570   1       8.78899 102.52 -1.0153  1
GRID     11571   1       8.51204 104.254-1.06307 1
GRID     11572   1       8.42632 101.742-1.07754 1
GRID     11573   1       8.71433 100.073-1.02834 1
GRID     11574   1       8.3571  99.1829-1.08911 1
GRID     11575   1       8.65582 97.5891-1.03847 1
GRID     11576   1       9.00926 98.513 -.976178 1
GRID     11577   1       8.96078 96.1027-.984874 1
GRID     11578   1       9.31045 97.0527-.921069 1
GRID     11579   1       10.4772 109.107-.689809 1
GRID     11580   1       10.608  111.052-.662103 1
GRID     11581   1       10.3727 112.689-.71167  1
GRID     11582   1       10.2318 110.72 -.740807 1
GRID     11583   1       9.99488 112.411-.788842 1
GRID     11584   1       9.8559  110.363-.816479 1
GRID     11585   1       10.1033 108.698-.767015 1
GRID     11586   1       9.72987 108.259-.841194 1
GRID     11587   1       9.98761 106.627-.790298 1
GRID     11588   1       10.3587 107.115-.714585 1
GRID     11589   1       10.253  105.079-.736436 1
GRID     11590   1       10.6217 105.608-.659185 1
GRID     11629   1       9.9     90.    -.807755 1
GRID     11630   1       10.2318 88.933 -.740807 1
GRID     11631   1       10.5669 87.9334-.670854 1
GRID     11632   1       10.56   90.    -.67231  1
GRID     11633   1       10.2318 91.067 -.740807 1
GRID     11634   1       10.5669 92.0666-.670854 1
GRID     11635   1       10.246  93.1979-.737892 1
GRID     11636   1       9.90733 92.2042-.806299 1
GRID     11637   1       9.92929 94.402 -.801934 1
GRID     11638   1       9.58705 93.418 -.8688   1
GRID     11639   1       9.5719  91.1405-.871705 1
GRID     11640   1       9.24785 92.3615-.932674 1
GRID     11641   1       9.24    90.    -.934124 1
GRID     11642   1       9.5719  88.8595-.871705 1
GRID     11643   1       9.24785 87.6385-.932674 1
GRID     11645   1       9.90733 87.7958-.806299 1
GRID     11646   1       9.92929 85.5981-.801934 1
GRID     11647   1       10.246  86.8021-.737892 1
GRID     11648   1       10.4425 101.578-.697098 1
GRID     11649   1       10.3727 99.5153-.711673 1
GRID     11650   1       10.6694 98.2132-.648972 1
GRID     11651   1       10.3166 97.4277-.723326 1
GRID     11652   1       10.6217 96.1784-.659185 1
GRID     11659   1       10.4772 70.8934-.689809 1
GRID     11660   1       10.608  68.9483-.662103 1
GRID     11668   1       10.3587 72.8854-.714585 1
GRID     11669   1       10.253  74.9209-.736436 1
GRID     11670   1       10.6217 74.3916-.659185 1
GRID     11671   1       10.4425 78.4222-.697098 1
GRID     11672   1       10.3727 80.4847-.711673 1
GRID     11673   1       10.6694 81.7868-.648972 1
GRID     11674   1       10.3166 82.5723-.723326 1
GRID     11675   1       10.6217 83.8216-.659185 1
GRID     11676   1       11.     61.9641-.576943 1
GRID     11677   1       11.     118.036-.57694  1
GRID     11678   1       11.     120.   -.57694  1
GRID     11679   1       11.     116.508-.57694  1
GRID     11680   1       11.     114.762-.57694  1
GRID     11681   1       11.     112.986-.576937 1
GRID     11682   1       11.     111.21 -.57695  1
GRID     11683   1       11.     109.434-.576934 1
GRID     11684   1       11.     107.658-.576943 1
GRID     11685   1       11.     105.882-.57694  1
GRID     11686   1       11.     104.106-.576943 1
GRID     11687   1       11.     102.29 -.576943 1
GRID     11688   1       11.     100.474-.576943 1
GRID     11689   1       11.     98.6583-.57695  1
GRID     11690   1       11.     96.8424-.576931 1
GRID     11691   1       11.     95.0265-.57694  1
GRID     11692   1       11.     93.2106-.57695  1
GRID     11693   1       11.     91.0001-.576946 1
GRID     11694   1       11.     89.    -.576946 1
GRID     11695   1       11.     86.7894-.57695  1
GRID     11696   1       11.     84.9735-.57694  1
GRID     11697   1       11.     83.1576-.576931 1
GRID     11698   1       11.     81.3417-.57695  1
GRID     11699   1       11.     79.5258-.576943 1
GRID     11700   1       11.     77.7099-.576943 1
GRID     11701   1       11.     75.894 -.576943 1
GRID     11702   1       11.     74.118 -.57694  1
GRID     11703   1       11.     72.3419-.576943 1
GRID     11704   1       11.     70.5658-.576934 1
GRID     11705   1       11.     68.7897-.57695  1
GRID     11706   1       11.     67.0137-.576937 1
GRID     11707   1       11.     65.2376-.57694  1
GRID     11709   1       3.42946-180.   -1.66431 1
GRID     11710   1       3.635   174.791-1.65001 1
GRID     11711   1       3.86725 170.174-1.63285 1
GRID     11712   1       4.01462 175.285-1.6214  1
GRID     11713   1       3.81051-180.   -1.63714 1
GRID     11714   1       4.19156-180.   -1.60709 1
GRID     11715   1       3.2557  174.183-1.67575 1
GRID     11716   1       3.11904 167.784-1.68433 1
GRID     11717   1       3.49239 169.107-1.66003 1
GRID     11718   1       4.01462 124.715-1.6214  1
GRID     11719   1       3.635   125.209-1.65001 1
GRID     11720   1       3.86725 129.826-1.63285 1
GRID     11721   1       3.49239 130.893-1.66003 1
GRID     11722   1       3.2557  125.818-1.67575 1
GRID     11723   1       3.11904 132.216-1.68433 1
GRID     11724   1       3.96    150.   -1.62569 1
GRID     11725   1       4.29423 147.457-1.5985  1
GRID     11726   1       4.63569 145.285-1.56842 1
GRID     11727   1       4.62    150.   -1.56985 1
GRID     11728   1       4.29423 152.543-1.5985  1
GRID     11729   1       4.63569 154.715-1.56842 1
GRID     11730   1       4.32791 157.589-1.59563 1
GRID     11731   1       3.97829 155.496-1.62426 1
GRID     11732   1       4.03267 160.893-1.61997 1
GRID     11733   1       3.67472 158.948-1.64715 1
GRID     11734   1       3.635   153.005-1.65001 1
GRID     11735   1       3.32193 156.587-1.67146 1
GRID     11736   1       3.3     150.   -1.67289 1
GRID     11737   1       3.635   146.996-1.65001 1
GRID     11738   1       3.32193 143.413-1.67146 1
GRID     11739   1       3.67473 141.052-1.64715 1
GRID     11740   1       3.97829 144.504-1.62426 1
GRID     11741   1       4.03267 139.107-1.61997 1
GRID     11742   1       4.32791 142.411-1.59563 1
GRID     11745   1       5.76635 163.373-1.45225 1
GRID     11757   1       4.49253 167.27 -1.58131 1
GRID     11760   1       5.04083 160.893-1.52973 1
GRID     11761   1       5.40233 162.216-1.49244 1
GRID     11774   1       5.23859 130.893-1.50965 1
GRID     11775   1       5.61323 130.158-1.46948 1
GRID     11776   1       5.98869 129.515-1.4264  1
GRID     11777   1       5.86621 133.004-1.44076 1
GRID     11778   1       5.4956  133.898-1.4824  1
GRID     11779   1       5.76635 136.627-1.45225 1
GRID     11780   1       5.40233 137.784-1.49244 1
GRID     11781   1       5.12652 134.921-1.52113 1
GRID     11782   1       5.04083 139.107-1.52973 1
GRID     11783   1       4.75933 136.102-1.55696 1
GRID     11784   1       4.86494 131.742-1.54693 1
GRID     11785   1       4.49253 132.731-1.58131 1
GRID     11786   1       4.62    128.213-1.56985 1
GRID     11787   1       4.99744 127.589-1.53403 1
GRID     11788   1       4.77456 123.963-1.55553 1
GRID     11789   1       5.15477 123.671-1.51826 1
GRID     11790   1       5.37539 127.053-1.49531 1
GRID     11791   1       5.53509 123.418-1.47809 1
GRID     11792   1       5.75375 126.587-1.45369 1
GRID     11793   1       5.94    150.   -1.43215 1
GRID     11794   1       6.27289 148.26 -1.39191 1
GRID     11795   1       6.61099 146.696-1.34877 1
GRID     11796   1       6.6     150.   -1.3502  1
GRID     11797   1       6.27289 151.741-1.39191 1
GRID     11798   1       6.61099 153.304-1.34877 1
GRID     11799   1       6.296   155.209-1.38903 1
GRID     11800   1       5.95221 153.671-1.43071 1
GRID     11801   1       5.98869 157.311-1.4264  1
GRID     11802   1       5.63904 155.818-1.46661 1
GRID     11803   1       5.61323 151.945-1.46948 1
GRID     11804   1       5.29373 154.128-1.50392 1
GRID     11805   1       5.28    150.   -1.50535 1
GRID     11806   1       5.61324 148.055-1.46948 1
GRID     11807   1       5.29373 145.872-1.50392 1
GRID     11808   1       5.63904 144.183-1.46661 1
GRID     11809   1       5.95221 146.33 -1.43071 1
GRID     11810   1       5.98869 142.689-1.4264  1
GRID     11811   1       6.296   144.791-1.38903 1
GRID     11812   1       7.13899 163.898-1.27677 1
GRID     11813   1       7.41827 161.857-1.23641 1
GRID     11814   1       7.70628 159.966-1.19313 1
GRID     11815   1       7.78129 162.731-1.18159 1
GRID     11816   1       7.50584 164.705-1.22343 1
GRID     11817   1       7.87403 165.436-1.16715 1
GRID     11818   1       7.61149 167.48 -1.20757 1
GRID     11819   1       7.23997 166.826-1.26236 1
GRID     11822   1       6.8695  166.102-1.31422 1
GRID     11824   1       6.50025 165.295-1.36315 1
GRID     11825   1       6.77371 163.004-1.32718 1
GRID     11826   1       6.41027 162.008-1.37466 1
GRID     11827   1       6.69827 159.826-1.33725 1
GRID     11828   1       7.05717 160.893-1.2883  1
GRID     11829   1       6.99517 157.827-1.29694 1
GRID     11830   1       7.34945 158.948-1.24651 1
GRID     11833   1       9.10545 169.56 -.958782 1
GRID     11848   1       8.3571  168.613-1.08911 1
GRID     11849   1       8.73098 169.107-1.02544 1
GRID     11851   1       10.4841 178.196-.688353 1
GRID     11852   1       10.5735 176.423-.669446 1
GRID     11862   1       6.8906  125.496-1.31134 1
GRID     11863   1       6.67656 122.833-1.34013 1
GRID     11864   1       6.51141 125.818-1.36171 1
GRID     11865   1       6.296   123.005-1.38903 1
GRID     11866   1       7.13899 136.102-1.27677 1
GRID     11867   1       7.50584 135.295-1.22343 1
GRID     11868   1       7.87403 134.564-1.16715 1
GRID     11869   1       7.78129 137.27 -1.18159 1
GRID     11870   1       7.41827 138.143-1.23641 1
GRID     11871   1       7.70628 140.034-1.19313 1
GRID     11872   1       7.34945 141.052-1.24651 1
GRID     11873   1       7.05717 139.107-1.2883  1
GRID     11874   1       6.99517 142.173-1.29694 1
GRID     11875   1       6.69827 140.174-1.33725 1
GRID     11876   1       6.77371 136.996-1.32718 1
GRID     11877   1       6.41027 137.992-1.37466 1
GRID     11878   1       6.50025 134.705-1.36315 1
GRID     11879   1       6.8695  133.898-1.31422 1
GRID     11880   1       6.61099 131.518-1.34877 1
GRID     11881   1       6.98478 130.893-1.29838 1
GRID     11882   1       7.23997 133.174-1.26236 1
GRID     11883   1       7.35932 130.333-1.24506 1
GRID     11884   1       7.66966 131.692-1.19165 1
GRID     11885   1       7.92    150.   -1.15993 1
GRID     11886   1       8.2522  148.677-1.10646 1
GRID     11887   1       8.58846 147.457-1.05005 1
GRID     11888   1       8.58    150.   -1.0515  1
GRID     11889   1       8.2522  151.323-1.10646 1
GRID     11890   1       8.58846 152.543-1.05005 1
GRID     11891   1       8.26978 153.963-1.10357 1
GRID     11892   1       7.92916 152.755-1.15848 1
GRID     11893   1       7.95658 155.496-1.15415 1
GRID     11894   1       7.61149 154.307-1.20757 1
GRID     11895   1       7.59239 151.438-1.21045 1
GRID     11896   1       7.26999 153.005-1.25804 1
GRID     11897   1       7.26    150.   -1.25948 1
GRID     11898   1       7.59239 148.562-1.21045 1
GRID     11899   1       7.26999 146.996-1.25804 1
GRID     11900   1       7.61149 145.693-1.20757 1
GRID     11901   1       7.92916 147.246-1.15848 1
GRID     11902   1       7.95658 144.504-1.15415 1
GRID     11903   1       8.26978 146.037-1.10357 1
GRID     11904   1       9.0735  160.893-.964581 1
GRID     11905   1       9.36487 159.367-.910908 1
GRID     11906   1       9.66248 157.934-.854273 1
GRID     11907   1       9.72241 160.158-.842647 1
GRID     11908   1       9.43438 161.651-.897846 1
GRID     11909   1       9.7968  162.353-.828111 1
GRID     11910   1       9.51866 163.898-.881873 1
GRID     11911   1       9.15316 163.236-.950079 1
GRID     11912   1       9.24785 165.535-.932674 1
GRID     11913   1       8.87939 164.921-.999364 1
GRID     11914   1       8.78899 162.52 -1.0153  1
GRID     11915   1       8.51204 164.254-1.06307 1
GRID     11916   1       8.42632 161.742-1.07754 1
GRID     11917   1       8.71433 160.073-1.02834 1
GRID     11918   1       8.3571  159.183-1.08911 1
GRID     11919   1       8.65582 157.589-1.03847 1
GRID     11920   1       9.00926 158.513-.976178 1
GRID     11921   1       8.96078 156.103-.984874 1
GRID     11922   1       9.31045 157.053-.921069 1
GRID     11923   1       10.4772 169.107-.689806 1
GRID     11924   1       10.608  171.052-.662103 1
GRID     11926   1       10.2318 170.72 -.740798 1
GRID     11928   1       9.8559  170.363-.816479 1
GRID     11929   1       10.1033 168.698-.767015 1
GRID     11930   1       9.72987 168.259-.841194 1
GRID     11931   1       9.98761 166.627-.790295 1
GRID     11932   1       10.3587 167.115-.714575 1
GRID     11933   1       10.253  165.079-.736436 1
GRID     11934   1       10.6217 165.608-.659182 1
GRID     11936   1       9.00926 126.309-.976178 1
GRID     11937   1       9.3881  126.053-.906555 1
GRID     11938   1       9.24    128.213-.934124 1
GRID     11939   1       8.78858 128.22 -1.00307 1
GRID     11940   1       9.10545 130.44 -.958782 1
GRID     11941   1       8.73098 130.893-1.02544 1
GRID     11942   1       8.63497 129.665-1.03106 1
GRID     11943   1       8.43335 131.733-1.0695  1
GRID     11953   1       9.23804 124.502-.926081 1
GRID     11954   1       9.0735  139.107-.964581 1
GRID     11955   1       9.43438 138.349-.897843 1
GRID     11956   1       9.7968  137.648-.828111 1
GRID     11957   1       9.72241 139.842-.842647 1
GRID     11958   1       9.36487 140.633-.910908 1
GRID     11959   1       9.66248 142.066-.854273 1
GRID     11960   1       9.31045 142.947-.921066 1
GRID     11961   1       9.00926 141.487-.976178 1
GRID     11962   1       8.96078 143.897-.984874 1
GRID     11963   1       8.65582 142.411-1.03847 1
GRID     11964   1       8.71433 139.927-1.02833 1
GRID     11965   1       8.3571  140.817-1.08911 1
GRID     11966   1       8.42632 138.259-1.07754 1
GRID     11967   1       8.78899 137.48 -1.0153  1
GRID     11968   1       8.51204 135.746-1.06307 1
GRID     11969   1       8.87939 135.079-.999367 1
GRID     11970   1       9.15316 136.764-.950079 1
GRID     11971   1       9.24785 134.465-.932674 1
GRID     11972   1       9.51866 136.102-.881873 1
GRID     11973   1       9.9     150.   -.807755 1
GRID     11974   1       10.2318 148.933-.740807 1
GRID     11975   1       10.5669 147.933-.670854 1
GRID     11976   1       10.56   150.   -.67231  1
GRID     11977   1       10.2318 151.067-.740807 1
GRID     11978   1       10.5669 152.067-.670854 1
GRID     11979   1       10.246  153.198-.737892 1
GRID     11980   1       9.90733 152.204-.806299 1
GRID     11981   1       9.92929 154.402-.801937 1
GRID     11982   1       9.58705 153.418-.8688   1
GRID     11983   1       9.5719  151.141-.871705 1
GRID     11984   1       9.24785 152.362-.932674 1
GRID     11985   1       9.24    150.   -.934127 1
GRID     11986   1       9.5719  148.86 -.871705 1
GRID     11987   1       9.24785 147.639-.932674 1
GRID     11988   1       9.58705 146.582-.868803 1
GRID     11989   1       9.90733 147.796-.806299 1
GRID     11990   1       9.92929 145.598-.801934 1
GRID     11991   1       10.246  146.802-.737892 1
GRID     11992   1       10.4425 161.578-.697098 1
GRID     11993   1       10.3727 159.515-.71167  1
GRID     11994   1       10.6694 158.213-.648972 1
GRID     11995   1       10.3166 157.428-.723326 1
GRID     11996   1       10.6217 156.178-.659185 1
GRID     11997   1       10.4841 121.804-.68835  1
GRID     11998   1       10.5735 123.577-.669455 1
GRID     11999   1       9.72241 121.945-.842647 1
GRID     12000   1       10.1033 121.872-.767015 1
GRID     12001   1       9.92929 123.811-.801937 1
GRID     12002   1       10.3095 123.671-.724785 1
GRID     12003   1       10.4772 130.893-.689809 1
GRID     12004   1       10.608  128.948-.6621   1
GRID     12005   1       10.3727 127.311-.71167  1
GRID     12006   1       10.2318 129.28 -.740807 1
GRID     12007   1       9.99488 127.589-.788842 1
GRID     12008   1       9.8559  129.637-.816479 1
GRID     12009   1       10.1033 131.302-.767012 1
GRID     12010   1       9.72987 131.742-.841194 1
GRID     12011   1       9.98761 133.373-.790298 1
GRID     12012   1       10.3587 132.885-.714585 1
GRID     12013   1       10.253  134.921-.736436 1
GRID     12014   1       10.6217 134.392-.659185 1
GRID     12015   1       10.4425 138.422-.697098 1
GRID     12016   1       10.3727 140.485-.71167  1
GRID     12017   1       10.6694 141.787-.648972 1
GRID     12018   1       10.3166 142.572-.723326 1
GRID     12019   1       10.6217 143.822-.659185 1
GRID     12020   1       11.     121.964-.57694  1
GRID     12021   1       11.     178.036-.57695  1
GRID     12022   1       11.    -180.   -.57694  1
GRID     12023   1       11.     176.508-.576937 1
GRID     12024   1       11.     174.762-.576934 1
GRID     12025   1       11.     172.986-.576937 1
GRID     12026   1       11.     171.21 -.576943 1
GRID     12027   1       11.     169.434-.57694  1
GRID     12028   1       11.     167.658-.576937 1
GRID     12029   1       11.     165.882-.576931 1
GRID     12030   1       11.     164.106-.576934 1
GRID     12031   1       11.     162.29 -.57694  1
GRID     12032   1       11.     160.474-.57694  1
GRID     12033   1       11.     158.658-.57694  1
GRID     12034   1       11.     156.842-.57694  1
GRID     12035   1       11.     155.027-.57694  1
GRID     12036   1       11.     153.211-.57694  1
GRID     12037   1       11.     151.   -.57694  1
GRID     12038   1       11.     149.   -.576943 1
GRID     12039   1       11.     146.789-.57694  1
GRID     12040   1       11.     144.974-.57694  1
GRID     12041   1       11.     143.158-.57694  1
GRID     12042   1       11.     141.342-.57694  1
GRID     12043   1       11.     139.526-.57694  1
GRID     12044   1       11.     137.71 -.57694  1
GRID     12045   1       11.     135.894-.57694  1
GRID     12046   1       11.     134.118-.57694  1
GRID     12047   1       11.     132.342-.57694  1
GRID     12048   1       11.     130.566-.57694  1
GRID     12049   1       11.     128.79 -.57694  1
GRID     12050   1       11.     127.014-.57694  1
GRID     12051   1       11.     125.238-.57694  1
GRID     12052   1       11.     123.492-.57694  1
GRID     12053   1       3.42946-120.   -1.66431 1
GRID     12054   1       3.635  -125.209-1.65001 1
GRID     12055   1       3.86725-129.826-1.63285 1
GRID     12056   1       4.01462-124.715-1.6214  1
GRID     12057   1       3.81051-120.   -1.63714 1
GRID     12058   1       4.19156-120.   -1.60709 1
GRID     12059   1       3.2557 -125.818-1.67575 1
GRID     12060   1       3.11904-132.216-1.68433 1
GRID     12061   1       3.49239-130.893-1.66003 1
GRID     12062   1       4.01462-175.285-1.6214  1
GRID     12063   1       3.635  -174.791-1.65001 1
GRID     12064   1       3.86725-170.174-1.63285 1
GRID     12065   1       3.49239-169.107-1.66003 1
GRID     12066   1       3.2557 -174.183-1.67575 1
GRID     12067   1       3.11904-167.784-1.68433 1
GRID     12068   1       3.96   -150.   -1.62569 1
GRID     12069   1       4.29423-152.543-1.5985  1
GRID     12070   1       4.63569-154.715-1.56842 1
GRID     12071   1       4.62   -150.   -1.56985 1
GRID     12072   1       4.29423-147.457-1.5985  1
GRID     12073   1       4.63569-145.285-1.56842 1
GRID     12074   1       4.32791-142.411-1.59563 1
GRID     12075   1       3.97829-144.504-1.62426 1
GRID     12076   1       4.03267-139.107-1.61997 1
GRID     12077   1       3.67472-141.052-1.64715 1
GRID     12078   1       3.635  -146.996-1.65001 1
GRID     12079   1       3.32193-143.413-1.67146 1
GRID     12080   1       3.3    -150.   -1.67289 1
GRID     12081   1       3.635  -153.005-1.65001 1
GRID     12082   1       3.32193-156.587-1.67146 1
GRID     12083   1       3.67472-158.948-1.64715 1
GRID     12084   1       3.97829-155.496-1.62426 1
GRID     12085   1       4.03267-160.893-1.61997 1
GRID     12086   1       4.32791-157.589-1.59563 1
GRID     12087   1       5.23859-130.893-1.50965 1
GRID     12088   1       5.4956 -133.898-1.4824  1
GRID     12089   1       5.76635-136.627-1.45225 1
GRID     12090   1       5.86621-133.004-1.44076 1
GRID     12091   1       5.61323-130.158-1.46948 1
GRID     12092   1       5.98869-129.515-1.4264  1
GRID     12093   1       5.75375-126.587-1.45369 1
GRID     12094   1       5.37539-127.053-1.49531 1
GRID     12095   1       5.53509-123.418-1.47809 1
GRID     12096   1       5.15477-123.671-1.51826 1
GRID     12097   1       4.99744-127.589-1.53403 1
GRID     12098   1       4.77456-123.963-1.55553 1
GRID     12099   1       4.62   -128.213-1.56985 1
GRID     12100   1       4.86494-131.742-1.54693 1
GRID     12101   1       4.49253-132.731-1.58131 1
GRID     12102   1       4.75933-136.102-1.55696 1
GRID     12103   1       5.12652-134.921-1.52113 1
GRID     12104   1       5.04083-139.107-1.52973 1
GRID     12105   1       5.40233-137.784-1.49244 1
GRID     12106   1       6.76454-120.077-1.31694 1
GRID     12112   1       6.47787-120.   -1.36603 1
GRID     12113   1       6.09682-120.   -1.41347 1
GRID     12114   1       6.296  -123.005-1.38903 1
GRID     12115   1       6.80162-122.675-1.31245 1
GRID     12116   1       6.51141-125.818-1.36171 1
GRID     12117   1       6.85955-125.546-1.30741 1
GRID     12129   1       4.49253-167.27 -1.58131 1
GRID     12142   1       6.61099-146.696-1.34877 1
GRID     12143   1       6.296  -144.791-1.38903 1
GRID     12145   1       5.98869-142.689-1.4264  1
GRID     12148   1       5.29373-145.872-1.50392 1
GRID     12156   1       7.13899-136.102-1.27677 1
GRID     12157   1       7.41827-138.143-1.23641 1
GRID     12158   1       7.70628-140.034-1.19313 1
GRID     12159   1       7.78129-137.27 -1.18159 1
GRID     12160   1       7.50584-135.295-1.22343 1
GRID     12161   1       7.87403-134.564-1.16715 1
GRID     12162   1       7.66969-131.692-1.19164 1
GRID     12163   1       7.23997-133.174-1.26236 1
GRID     12164   1       7.35932-130.333-1.24506 1
GRID     12165   1       6.98478-130.893-1.29838 1
GRID     12166   1       6.8695 -133.898-1.31422 1
GRID     12167   1       6.61099-131.518-1.34877 1
GRID     12168   1       6.50025-134.705-1.36315 1
GRID     12169   1       6.77371-136.996-1.32718 1
GRID     12170   1       6.41027-137.992-1.37466 1
GRID     12171   1       6.69827-140.174-1.33725 1
GRID     12172   1       7.05717-139.107-1.2883  1
GRID     12173   1       6.99517-142.173-1.29694 1
GRID     12174   1       7.34945-141.052-1.24651 1
GRID     12175   1       8.71083-127.966-1.01767 1
GRID     12176   1       8.86303-128.565-1.00226 1
GRID     12177   1       9.10545-130.44 -.958782 1
GRID     12178   1       9.24   -128.213-.934124 1
GRID     12179   1       8.91002-125.894-.983563 1
GRID     12180   1       9.3881 -126.053-.906555 1
GRID     12181   1       9.12052-123.914-.949426 1
GRID     12191   1       8.58805-129.358-1.03978 1
GRID     12192   1       8.40907-131.582-1.07385 1
GRID     12193   1       8.73098-130.893-1.02544 1
GRID     12194   1       10.2884-120.   -.729153 1
GRID     12195   1       10.4841-121.804-.68835  1
GRID     12196   1       10.5735-123.577-.669455 1
GRID     12197   1       9.90733-120.   -.806299 1
GRID     12198   1       9.37596-119.89 -.905756 1
GRID     12199   1       9.72241-121.945-.842647 1
GRID     12200   1       10.1033-121.872-.767015 1
GRID     12201   1       9.92929-123.811-.801937 1
GRID     12202   1       10.3095-123.671-.724785 1
GRID     12229   1       7.92   -150.   -1.15993 1
GRID     12230   1       8.2522 -151.323-1.10646 1
GRID     12231   1       8.58846-152.543-1.05005 1
GRID     12232   1       8.58   -150.   -1.0515  1
GRID     12233   1       8.2522 -148.677-1.10646 1
GRID     12234   1       8.58846-147.457-1.05005 1
GRID     12235   1       8.26978-146.037-1.10357 1
GRID     12236   1       7.92916-147.246-1.15848 1
GRID     12237   1       7.95658-144.504-1.15415 1
GRID     12238   1       7.61149-145.693-1.20757 1
GRID     12239   1       7.59239-148.562-1.21045 1
GRID     12240   1       7.26999-146.996-1.25804 1
GRID     12241   1       7.26   -150.   -1.25948 1
GRID     12242   1       7.59239-151.438-1.21045 1
GRID     12245   1       7.92916-152.755-1.15848 1
GRID     12247   1       8.26978-153.963-1.10357 1
GRID     12248   1       9.0735 -139.107-.964581 1
GRID     12249   1       9.36487-140.633-.910908 1
GRID     12250   1       9.66248-142.066-.854273 1
GRID     12251   1       9.72241-139.842-.842647 1
GRID     12252   1       9.43438-138.349-.897843 1
GRID     12253   1       9.7968 -137.648-.828111 1
GRID     12254   1       9.51866-136.102-.881873 1
GRID     12255   1       9.15316-136.764-.950079 1
GRID     12256   1       9.24785-134.465-.932674 1
GRID     12257   1       8.87939-135.079-.999367 1
GRID     12258   1       8.78899-137.48 -1.0153  1
GRID     12259   1       8.51204-135.746-1.06307 1
GRID     12260   1       8.42632-138.259-1.07754 1
GRID     12261   1       8.71433-139.927-1.02833 1
GRID     12262   1       8.35711-140.817-1.08911 1
GRID     12263   1       8.65582-142.411-1.03847 1
GRID     12264   1       9.00926-141.487-.976178 1
GRID     12265   1       8.96078-143.897-.984874 1
GRID     12266   1       9.31045-142.947-.921066 1
GRID     12267   1       10.4772-130.893-.689809 1
GRID     12268   1       10.608 -128.948-.6621   1
GRID     12269   1       10.3727-127.311-.711673 1
GRID     12270   1       10.2318-129.28 -.740807 1
GRID     12271   1       9.99488-127.589-.788842 1
GRID     12272   1       9.8559 -129.637-.816479 1
GRID     12273   1       10.1033-131.302-.767012 1
GRID     12274   1       9.72987-131.742-.841194 1
GRID     12275   1       9.98761-133.373-.790298 1
GRID     12276   1       10.3587-132.885-.714585 1
GRID     12277   1       10.253 -134.921-.736436 1
GRID     12278   1       10.6217-134.392-.659185 1
GRID     12303   1       9.66248-157.934-.854273 1
GRID     12304   1       9.31045-157.053-.921069 1
GRID     12306   1       8.96078-156.103-.984874 1
GRID     12317   1       9.9    -150.   -.807755 1
GRID     12318   1       10.2318-151.067-.740807 1
GRID     12319   1       10.5669-152.067-.670854 1
GRID     12320   1       10.56  -150.   -.67231  1
GRID     12321   1       10.2318-148.933-.740807 1
GRID     12322   1       10.5669-147.933-.670854 1
GRID     12323   1       10.246 -146.802-.737892 1
GRID     12324   1       9.90733-147.796-.806299 1
GRID     12325   1       9.92929-145.598-.801934 1
GRID     12326   1       9.58705-146.582-.868803 1
GRID     12327   1       9.5719 -148.86 -.871705 1
GRID     12328   1       9.24785-147.639-.932674 1
GRID     12329   1       9.24   -150.   -.934127 1
GRID     12330   1       9.5719 -151.141-.871705 1
GRID     12331   1       9.24785-152.362-.932674 1
GRID     12332   1       9.58705-153.418-.8688   1
GRID     12333   1       9.90733-152.204-.806299 1
GRID     12334   1       9.92929-154.402-.801937 1
GRID     12335   1       10.246 -153.198-.737892 1
GRID     12336   1       10.4425-138.422-.697098 1
GRID     12337   1       10.3727-140.485-.711673 1
GRID     12338   1       10.6694-141.787-.648972 1
GRID     12339   1       10.3166-142.572-.723326 1
GRID     12340   1       10.6217-143.822-.659185 1
GRID     12341   1       10.4841-178.196-.688353 1
GRID     12342   1       10.5735-176.423-.669446 1
GRID     12348   1       10.608 -171.052-.662103 1
GRID     12360   1       10.3727-159.515-.711673 1
GRID     12361   1       10.6694-158.213-.648972 1
GRID     12362   1       10.3166-157.428-.723326 1
GRID     12363   1       10.6217-156.178-.659185 1
GRID     12364   1       11.    -178.036-.57695  1
GRID     12365   1       11.    -121.964-.57694  1
GRID     12366   1       11.    -120.   -.57694  1
GRID     12367   1       11.    -123.492-.57694  1
GRID     12368   1       11.    -125.238-.57694  1
GRID     12369   1       11.    -127.014-.57694  1
GRID     12370   1       11.    -128.79 -.57694  1
GRID     12371   1       11.    -130.566-.57694  1
GRID     12372   1       11.    -132.342-.57694  1
GRID     12373   1       11.    -134.118-.57694  1
GRID     12374   1       11.    -135.894-.57694  1
GRID     12375   1       11.    -137.71 -.57694  1
GRID     12376   1       11.    -139.526-.57694  1
GRID     12377   1       11.    -141.342-.57694  1
GRID     12378   1       11.    -143.158-.57694  1
GRID     12379   1       11.    -144.974-.57694  1
GRID     12380   1       11.    -146.789-.57694  1
GRID     12381   1       11.    -149.   -.57694  1
GRID     12382   1       11.    -151.   -.57694  1
GRID     12383   1       11.    -153.211-.57694  1
GRID     12384   1       11.    -155.027-.57694  1
GRID     12385   1       11.    -156.842-.57694  1
GRID     12386   1       11.    -158.658-.57694  1
GRID     12387   1       11.    -160.474-.57694  1
GRID     12389   1       11.    -164.106-.576934 1
GRID     12390   1       11.    -165.882-.576931 1
GRID     12391   1       11.    -167.658-.576937 1
GRID     12392   1       11.    -169.434-.57694  1
GRID     12393   1       11.    -171.21 -.576943 1
GRID     12394   1       11.    -172.986-.576937 1
GRID     12395   1       11.    -174.762-.576934 1
GRID     12396   1       11.    -176.508-.576937 1
GRID     12397   1       3.42946-60.    -1.66431 1
GRID     12398   1       3.635  -65.2087-1.65001 1
GRID     12399   1       3.86725-69.8264-1.63285 1
GRID     12400   1       4.01462-64.715 -1.6214  1
GRID     12401   1       3.81051-60.    -1.63714 1
GRID     12402   1       4.19156-60.    -1.60709 1
GRID     12403   1       3.2557 -65.8175-1.67575 1
GRID     12404   1       3.11904-72.2164-1.68433 1
GRID     12405   1       3.49239-70.8934-1.66003 1
GRID     12406   1       4.01462-115.285-1.6214  1
GRID     12407   1       3.635  -114.791-1.65001 1
GRID     12408   1       3.86725-110.174-1.63285 1
GRID     12409   1       3.49239-109.107-1.66003 1
GRID     12410   1       3.2557 -114.183-1.67575 1
GRID     12411   1       3.11904-107.784-1.68433 1
GRID     12412   1       3.96   -90.    -1.62569 1
GRID     12413   1       4.29423-92.5429-1.5985  1
GRID     12414   1       4.63569-94.715 -1.56842 1
GRID     12415   1       4.62   -90.    -1.56985 1
GRID     12416   1       4.29423-87.4571-1.5985  1
GRID     12417   1       4.63569-85.285 -1.56842 1
GRID     12418   1       4.32791-82.4109-1.59563 1
GRID     12419   1       3.97829-84.5036-1.62426 1
GRID     12420   1       4.03267-79.1066-1.61997 1
GRID     12421   1       3.67472-81.0517-1.64715 1
GRID     12422   1       3.635  -86.9955-1.65001 1
GRID     12423   1       3.32193-83.4132-1.67146 1
GRID     12424   1       3.3    -90.    -1.67289 1
GRID     12425   1       3.635  -93.0045-1.65001 1
GRID     12426   1       3.32193-96.5868-1.67146 1
GRID     12427   1       3.67472-98.9483-1.64715 1
GRID     12428   1       3.97829-95.4964-1.62426 1
GRID     12429   1       4.03267-100.893-1.61997 1
GRID     12430   1       4.32791-97.5891-1.59563 1
GRID     12431   1       5.23859-70.8934-1.50965 1
GRID     12432   1       5.4956 -73.8979-1.4824  1
GRID     12433   1       5.76635-76.6272-1.45225 1
GRID     12434   1       5.86621-73.0039-1.44076 1
GRID     12435   1       5.61323-70.1583-1.46948 1
GRID     12441   1       4.99744-67.5891-1.53403 1
GRID     12443   1       4.62   -68.2132-1.56985 1
GRID     12444   1       4.86494-71.7415-1.54693 1
GRID     12445   1       4.49253-72.7305-1.58131 1
GRID     12446   1       4.75933-76.1021-1.55696 1
GRID     12447   1       5.12652-74.9209-1.52113 1
GRID     12448   1       5.04083-79.1066-1.52973 1
GRID     12449   1       5.40233-77.7837-1.49244 1
GRID     12462   1       5.23859-109.107-1.50965 1
GRID     12463   1       5.61323-109.842-1.46948 1
GRID     12464   1       5.98869-110.485-1.4264  1
GRID     12465   1       5.86621-106.996-1.44076 1
GRID     12466   1       5.4956 -106.102-1.4824  1
GRID     12467   1       5.76635-103.373-1.45225 1
GRID     12468   1       5.40233-102.216-1.49244 1
GRID     12469   1       5.12652-105.079-1.52113 1
GRID     12470   1       5.04083-100.893-1.52973 1
GRID     12471   1       4.75933-103.898-1.55696 1
GRID     12472   1       4.86494-108.259-1.54693 1
GRID     12473   1       4.49253-107.27 -1.58131 1
GRID     12474   1       4.62   -111.787-1.56985 1
GRID     12475   1       4.99744-112.411-1.53403 1
GRID     12476   1       4.77456-116.037-1.55553 1
GRID     12477   1       5.15477-116.33 -1.51826 1
GRID     12478   1       5.37539-112.947-1.49531 1
GRID     12479   1       5.53509-116.582-1.47809 1
GRID     12480   1       5.75375-113.413-1.45369 1
GRID     12481   1       5.94   -90.    -1.43215 1
GRID     12482   1       6.27289-91.7405-1.39191 1
GRID     12483   1       6.70955-93.962 -1.33342 1
GRID     12484   1       6.6    -90.    -1.3502  1
GRID     12485   1       6.27289-88.2595-1.39191 1
GRID     12486   1       6.61099-86.6957-1.34877 1
GRID     12487   1       6.296  -84.7913-1.38903 1
GRID     12488   1       5.95221-86.3295-1.43071 1
GRID     12489   1       5.98869-82.6889-1.4264  1
GRID     12490   1       5.63904-84.1825-1.46661 1
GRID     12491   1       5.61324-88.0549-1.46948 1
GRID     12492   1       5.29373-85.8722-1.50392 1
GRID     12493   1       5.28   -90.    -1.50535 1
GRID     12494   1       5.61323-91.9451-1.46948 1
GRID     12495   1       5.29373-94.1278-1.50392 1
GRID     12496   1       5.63904-95.8175-1.46661 1
GRID     12497   1       5.95221-93.6705-1.43071 1
GRID     12498   1       5.98869-97.3111-1.4264  1
GRID     12499   1       6.296  -95.2087-1.38903 1
GRID     12500   1       7.13899-76.1021-1.27677 1
GRID     12501   1       7.41827-78.1432-1.23641 1
GRID     12502   1       7.70628-80.034 -1.19313 1
GRID     12503   1       7.78129-77.2695-1.18159 1
GRID     12504   1       7.50584-75.2953-1.22343 1
GRID     12510   1       6.8695 -73.8979-1.31422 1
GRID     12512   1       6.50025-74.7047-1.36315 1
GRID     12513   1       6.77371-76.9961-1.32718 1
GRID     12514   1       6.41027-77.9917-1.37466 1
GRID     12515   1       6.69827-80.1736-1.33725 1
GRID     12516   1       7.05717-79.1066-1.2883  1
GRID     12517   1       6.99517-82.1729-1.29694 1
GRID     12518   1       7.34945-81.0517-1.24651 1
GRID     12538   1       10.2884-60.    -.729153 1
GRID     12539   1       10.4841-61.8038-.68835  1
GRID     12540   1       10.5735-63.5767-.669455 1
GRID     12544   1       10.1033-61.8718-.767015 1
GRID     12545   1       9.92929-63.8113-.801934 1
GRID     12546   1       10.3095-63.6705-.724785 1
GRID     12550   1       6.73256-114.506-1.32647 1
GRID     12551   1       6.73969-117.14 -1.32197 1
GRID     12552   1       6.51141-114.183-1.36171 1
GRID     12553   1       6.296  -116.996-1.38903 1
GRID     12557   1       7.84176-102.396-1.16558 1
GRID     12559   1       7.64333-100.28 -1.19613 1
GRID     12560   1       7.47672-98.314 -1.22319 1
GRID     12565   1       6.41027-102.008-1.37466 1
GRID     12566   1       6.50025-105.295-1.36315 1
GRID     12568   1       6.61099-108.483-1.34877 1
GRID     12573   1       7.92   -90.    -1.15993 1
GRID     12574   1       8.2522 -91.323 -1.10646 1
GRID     12575   1       8.58846-92.5429-1.05005 1
GRID     12576   1       8.58   -90.    -1.0515  1
GRID     12577   1       8.2522 -88.677 -1.10646 1
GRID     12578   1       8.58846-87.4571-1.05005 1
GRID     12579   1       8.26978-86.0368-1.10357 1
GRID     12580   1       7.92916-87.2455-1.15848 1
GRID     12581   1       7.95658-84.5036-1.15415 1
GRID     12582   1       7.61149-85.6934-1.20757 1
GRID     12583   1       7.59239-88.5621-1.21045 1
GRID     12584   1       7.26999-86.9955-1.25804 1
GRID     12585   1       7.26   -90.    -1.25948 1
GRID     12586   1       7.59239-91.4379-1.21045 1
GRID     12587   1       7.26999-93.0045-1.25804 1
GRID     12588   1       7.61149-94.3066-1.20757 1
GRID     12589   1       7.92916-92.7545-1.15848 1
GRID     12590   1       7.95658-95.4964-1.15415 1
GRID     12591   1       8.26978-93.9632-1.10357 1
GRID     12592   1       9.0735 -79.1066-.964581 1
GRID     12593   1       9.36487-80.633 -.910908 1
GRID     12594   1       9.66248-82.0663-.854273 1
GRID     12595   1       9.72241-79.8417-.842647 1
GRID     12596   1       9.43438-78.3491-.897843 1
GRID     12597   1       9.7968 -77.6475-.828111 1
GRID     12598   1       9.51866-76.1021-.881873 1
GRID     12599   1       9.15316-76.7637-.950082 1
GRID     12600   1       9.24785-74.465 -.932674 1
GRID     12601   1       8.87939-75.0791-.999364 1
GRID     12602   1       8.78899-77.4802-1.0153  1
GRID     12603   1       8.51204-75.7464-1.06307 1
GRID     12604   1       8.42632-78.2585-1.07754 1
GRID     12605   1       8.71433-79.9267-1.02834 1
GRID     12606   1       8.3571 -80.8171-1.08911 1
GRID     12607   1       8.65582-82.4109-1.03847 1
GRID     12608   1       9.00926-81.487 -.976178 1
GRID     12609   1       8.96078-83.8973-.984874 1
GRID     12610   1       9.31045-82.9473-.921069 1
GRID     12611   1       10.4772-70.8934-.689809 1
GRID     12612   1       10.608 -68.9483-.662103 1
GRID     12613   1       10.3727-67.3111-.71167  1
GRID     12614   1       10.2318-69.2802-.740807 1
GRID     12615   1       9.99488-67.5891-.788842 1
GRID     12616   1       9.8559 -69.6374-.816479 1
GRID     12617   1       10.1033-71.3018-.767015 1
GRID     12618   1       9.72987-71.7415-.841194 1
GRID     12619   1       9.98761-73.3728-.790298 1
GRID     12620   1       10.3587-72.8854-.714585 1
GRID     12621   1       10.253 -74.9209-.736436 1
GRID     12622   1       10.6217-74.3916-.659185 1
GRID     12624   1       9.00926-113.691-.976178 1
GRID     12625   1       9.3881 -113.947-.906555 1
GRID     12626   1       9.24   -111.787-.934124 1
GRID     12627   1       8.78858-111.781-1.00307 1
GRID     12628   1       9.10545-109.56 -.958782 1
GRID     12629   1       8.73098-109.107-1.02544 1
GRID     12630   1       8.63497-110.335-1.03106 1
GRID     12631   1       8.43335-108.267-1.0695  1
GRID     12641   1       9.23813-115.498-.926065 1
GRID     12642   1       9.0735 -100.893-.964581 1
GRID     12643   1       9.43438-101.651-.897843 1
GRID     12644   1       9.7968 -102.353-.828111 1
GRID     12645   1       9.72241-100.158-.842647 1
GRID     12646   1       9.36487-99.367 -.910908 1
GRID     12647   1       9.66248-97.9337-.854273 1
GRID     12648   1       9.31045-97.0527-.921069 1
GRID     12649   1       9.00926-98.513 -.976178 1
GRID     12650   1       8.96078-96.1027-.984874 1
GRID     12651   1       8.65582-97.5891-1.03847 1
GRID     12652   1       8.71433-100.073-1.02834 1
GRID     12653   1       8.3571 -99.1829-1.08911 1
GRID     12654   1       8.42632-101.742-1.07754 1
GRID     12655   1       8.78899-102.52 -1.0153  1
GRID     12656   1       8.51204-104.254-1.06307 1
GRID     12657   1       8.87939-104.921-.999364 1
GRID     12658   1       9.15316-103.236-.950082 1
GRID     12659   1       9.24785-105.535-.932674 1
GRID     12660   1       9.51866-103.898-.881873 1
GRID     12661   1       9.9    -90.    -.807755 1
GRID     12662   1       10.2318-91.067 -.740807 1
GRID     12663   1       10.5669-92.0666-.670854 1
GRID     12664   1       10.56  -90.    -.67231  1
GRID     12665   1       10.2318-88.933 -.740807 1
GRID     12666   1       10.5669-87.9334-.670854 1
GRID     12667   1       10.246 -86.8021-.737892 1
GRID     12668   1       9.90733-87.7958-.806299 1
GRID     12669   1       9.92929-85.5981-.801934 1
GRID     12670   1       9.58705-86.582 -.8688   1
GRID     12671   1       9.5719 -88.8595-.871705 1
GRID     12672   1       9.24785-87.6385-.932674 1
GRID     12673   1       9.24   -90.    -.934124 1
GRID     12674   1       9.5719 -91.1405-.871705 1
GRID     12675   1       9.24785-92.3615-.932674 1
GRID     12676   1       9.58705-93.418 -.8688   1
GRID     12677   1       9.90733-92.2042-.806299 1
GRID     12678   1       9.92929-94.402 -.801934 1
GRID     12679   1       10.246 -93.1979-.737892 1
GRID     12680   1       10.4425-78.4222-.697098 1
GRID     12681   1       10.3727-80.4847-.711673 1
GRID     12682   1       10.6694-81.7868-.648972 1
GRID     12683   1       10.3166-82.5723-.723326 1
GRID     12684   1       10.6217-83.8216-.659185 1
GRID     12685   1       10.4841-118.196-.68835  1
GRID     12686   1       10.5735-116.423-.669455 1
GRID     12687   1       9.72241-118.055-.842647 1
GRID     12688   1       10.1033-118.128-.767015 1
GRID     12689   1       9.92929-116.189-.801934 1
GRID     12690   1       10.3095-116.33 -.724785 1
GRID     12691   1       10.4772-109.107-.689809 1
GRID     12692   1       10.608 -111.052-.662103 1
GRID     12693   1       10.3727-112.689-.71167  1
GRID     12694   1       10.2318-110.72 -.740807 1
GRID     12695   1       9.99488-112.411-.788842 1
GRID     12696   1       9.8559 -110.363-.816479 1
GRID     12697   1       10.1033-108.698-.767015 1
GRID     12698   1       9.72987-108.259-.841194 1
GRID     12699   1       9.98761-106.627-.790298 1
GRID     12700   1       10.3587-107.115-.714585 1
GRID     12701   1       10.253 -105.079-.736436 1
GRID     12702   1       10.6217-105.608-.659185 1
GRID     12703   1       10.4425-101.578-.697098 1
GRID     12704   1       10.3727-99.5153-.711673 1
GRID     12705   1       10.6694-98.2132-.648972 1
GRID     12706   1       10.3166-97.4277-.723326 1
GRID     12707   1       10.6217-96.1784-.659185 1
GRID     12708   1       11.    -118.036-.576943 1
GRID     12709   1       11.    -61.9641-.57694  1
GRID     12710   1       11.    -60.    -.57694  1
GRID     12711   1       11.    -63.4917-.57694  1
GRID     12712   1       11.    -65.2376-.57694  1
GRID     12713   1       11.    -67.0137-.576937 1
GRID     12714   1       11.    -68.7897-.57695  1
GRID     12715   1       11.    -70.5658-.576934 1
GRID     12716   1       11.    -72.3419-.576943 1
GRID     12717   1       11.    -74.118 -.57694  1
GRID     12718   1       11.    -75.894 -.576943 1
GRID     12719   1       11.    -77.7099-.576943 1
GRID     12720   1       11.    -79.5258-.576943 1
GRID     12721   1       11.    -81.3417-.57695  1
GRID     12722   1       11.    -83.1576-.576931 1
GRID     12723   1       11.    -84.9735-.57694  1
GRID     12724   1       11.    -86.7894-.57695  1
GRID     12725   1       11.    -89.    -.576946 1
GRID     12726   1       11.    -91.    -.576946 1
GRID     12727   1       11.    -93.2106-.57695  1
GRID     12728   1       11.    -95.0265-.57694  1
GRID     12729   1       11.    -96.8424-.576931 1
GRID     12730   1       11.    -98.6583-.57695  1
GRID     12731   1       11.    -100.474-.576943 1
GRID     12732   1       11.    -102.29 -.576943 1
GRID     12733   1       11.    -104.106-.576943 1
GRID     12734   1       11.    -105.882-.57694  1
GRID     12735   1       11.    -107.658-.576943 1
GRID     12736   1       11.    -109.434-.576934 1
GRID     12737   1       11.    -111.21 -.57695  1
GRID     12738   1       11.    -112.986-.576937 1
GRID     12739   1       11.    -114.762-.57694  1
GRID     12740   1       11.    -116.508-.57694  1
GRID     12741   1       3.635  -5.20872-1.65001 1
GRID     12742   1       3.86725-9.82643-1.63285 1
GRID     12743   1       4.01462-4.71501-1.6214  1
GRID     12744   1       3.2557 -5.81753-1.67575 1
GRID     12745   1       3.11904-12.2164-1.68433 1
GRID     12746   1       3.49239-10.8934-1.66003 1
GRID     12747   1       4.01462-55.285 -1.6214  1
GRID     12748   1       3.635  -54.7913-1.65001 1
GRID     12749   1       3.86725-50.1736-1.63285 1
GRID     12750   1       3.49239-49.1066-1.66003 1
GRID     12751   1       3.2557 -54.1825-1.67575 1
GRID     12752   1       3.11904-47.7837-1.68433 1
GRID     12753   1       3.96   -30.    -1.62569 1
GRID     12754   1       4.29423-32.5429-1.5985  1
GRID     12755   1       4.63569-34.715 -1.56842 1
GRID     12756   1       4.62   -30.    -1.56985 1
GRID     12757   1       4.29423-27.4571-1.5985  1
GRID     12758   1       4.63569-25.285 -1.56842 1
GRID     12759   1       4.32791-22.4109-1.59563 1
GRID     12760   1       3.97829-24.5036-1.62426 1
GRID     12761   1       4.03267-19.1066-1.61997 1
GRID     12762   1       3.67472-21.0517-1.64715 1
GRID     12763   1       3.635  -26.9955-1.65001 1
GRID     12764   1       3.32193-23.4132-1.67146 1
GRID     12765   1       3.3    -30.    -1.67289 1
GRID     12766   1       3.635  -33.0045-1.65001 1
GRID     12767   1       3.32193-36.5868-1.67146 1
GRID     12768   1       3.67473-38.9483-1.64715 1
GRID     12769   1       3.97829-35.4964-1.62426 1
GRID     12770   1       4.03267-40.8934-1.61997 1
GRID     12771   1       4.32791-37.5891-1.59563 1
GRID     12772   1       5.23859-10.8934-1.50965 1
GRID     12773   1       5.4956 -13.8979-1.4824  1
GRID     12774   1       5.76635-16.6272-1.45225 1
GRID     12775   1       5.86621-13.0039-1.44076 1
GRID     12776   1       5.61323-10.1583-1.46948 1
GRID     12777   1       5.98869-9.51534-1.4264  1
GRID     12778   1       5.75375-6.58678-1.45369 1
GRID     12779   1       5.37539-7.05268-1.49531 1
GRID     12780   1       5.53509-3.41799-1.47809 1
GRID     12781   1       5.15477-3.6705 -1.51826 1
GRID     12782   1       4.99744-7.58909-1.53403 1
GRID     12783   1       4.77456-3.96324-1.55553 1
GRID     12784   1       4.62   -8.21321-1.56985 1
GRID     12785   1       4.86494-11.7415-1.54693 1
GRID     12786   1       4.49253-12.7305-1.58131 1
GRID     12787   1       4.75933-16.1021-1.55696 1
GRID     12788   1       5.12652-14.9209-1.52113 1
GRID     12789   1       5.04083-19.1066-1.52973 1
GRID     12790   1       5.40233-17.7837-1.49244 1
GRID     12791   1       7.05717-2.68019-1.2883  1
GRID     12792   1       7.26999-5.20872-1.25804 1
GRID     12793   1       7.43782-2.54293-1.23353 1
GRID     12794   1       6.296  -3.00449-1.38903 1
GRID     12795   1       6.67656-2.8331 -1.34013 1
GRID     12796   1       6.51141-5.81753-1.36171 1
GRID     12797   1       6.8906 -5.49637-1.31134 1
GRID     12804   1       5.40233-42.2164-1.49244 1
GRID     12805   1       5.12652-45.0791-1.52113 1
GRID     12806   1       5.04083-40.8934-1.52973 1
GRID     12807   1       4.75933-43.8979-1.55696 1
GRID     12808   1       4.86494-48.2585-1.54693 1
GRID     12809   1       4.49253-47.2695-1.58131 1
GRID     12810   1       4.62   -51.7868-1.56985 1
GRID     12817   1       5.94   -30.    -1.43215 1
GRID     12818   1       6.27289-31.7405-1.39191 1
GRID     12819   1       6.61099-33.3043-1.34877 1
GRID     12820   1       6.6    -30.    -1.3502  1
GRID     12821   1       6.27289-28.2595-1.39191 1
GRID     12822   1       6.61099-26.6957-1.34877 1
GRID     12823   1       6.296  -24.7913-1.38903 1
GRID     12824   1       5.95221-26.3295-1.43071 1
GRID     12825   1       5.98869-22.6889-1.4264  1
GRID     12826   1       5.63904-24.1825-1.46661 1
GRID     12827   1       5.61324-28.0549-1.46948 1
GRID     12828   1       5.29373-25.8722-1.50392 1
GRID     12829   1       5.28   -30.    -1.50535 1
GRID     12830   1       5.61324-31.9451-1.46948 1
GRID     12831   1       5.29373-34.1278-1.50392 1
GRID     12832   1       5.63904-35.8175-1.46661 1
GRID     12833   1       5.95221-33.6705-1.43071 1
GRID     12834   1       5.98869-37.3111-1.4264  1
GRID     12835   1       6.296  -35.2087-1.38903 1
GRID     12836   1       7.13899-16.1021-1.27677 1
GRID     12837   1       7.41827-18.1432-1.23641 1
GRID     12838   1       7.70628-20.034 -1.19313 1
GRID     12839   1       7.78129-17.2695-1.18159 1
GRID     12840   1       7.50584-15.2954-1.22343 1
GRID     12841   1       7.87403-14.5639-1.16715 1
GRID     12842   1       7.61149-12.5198-1.20757 1
GRID     12843   1       7.23997-13.1736-1.26236 1
GRID     12844   1       7.35932-10.3327-1.24507 1
GRID     12845   1       6.98478-10.8934-1.29838 1
GRID     12846   1       6.8695 -13.8979-1.31422 1
GRID     12847   1       6.61099-11.5175-1.34877 1
GRID     12848   1       6.50025-14.7047-1.36315 1
GRID     12849   1       6.77371-16.9961-1.32718 1
GRID     12850   1       6.41027-17.9917-1.37466 1
GRID     12851   1       6.69827-20.1736-1.33725 1
GRID     12852   1       7.05717-19.1066-1.2883  1
GRID     12853   1       6.99517-22.1729-1.29694 1
GRID     12854   1       7.34945-21.0517-1.24651 1
GRID     12855   1       8.63062-6.58678-1.04281 1
GRID     12856   1       8.86303-8.56512-1.00226 1
GRID     12857   1       9.10545-10.4403-.958782 1
GRID     12858   1       9.24   -8.21321-.934124 1
GRID     12859   1       9.00926-6.3088 -.976178 1
GRID     12860   1       9.3881 -6.05325-.906555 1
GRID     12861   1       9.16901-4.12781-.94718  1
GRID     12862   1       8.78899-4.30662-1.0153  1
GRID     12863   1       8.96078-2.11052-.984874 1
GRID     12864   1       8.58   -2.20423-1.0515  1
GRID     12865   1       8.40907-4.50159-1.08044 1
GRID     12866   1       8.19924-2.30664-1.11514 1
GRID     12867   1       8.02925-4.715  -1.1426  1
GRID     12868   1       8.2522 -6.89026-1.10646 1
GRID     12869   1       7.87403-7.2229 -1.16715 1
GRID     12870   1       8.11022-9.367  -1.12959 1
GRID     12871   1       8.48641-8.94828-1.06741 1
GRID     12872   1       8.3571 -11.3871-1.08911 1
GRID     12873   1       8.73098-10.8934-1.02544 1
GRID     12874   1       10.4841-1.80376-.688353 1
GRID     12875   1       10.5735-3.57669-.669446 1
GRID     12876   1       9.72241-1.94512-.842647 1
GRID     12877   1       10.1033-1.87177-.767006 1
GRID     12878   1       9.92929-3.81126-.801937 1
GRID     12879   1       10.3095-3.6705 -.724779 1
GRID     12907   1       8.2522 -31.323 -1.10646 1
GRID     12908   1       8.58846-32.5429-1.05005 1
GRID     12909   1       8.58   -30.    -1.0515  1
GRID     12910   1       8.2522 -28.6771-1.10646 1
GRID     12911   1       8.58846-27.4571-1.05005 1
GRID     12912   1       8.26978-26.0368-1.10357 1
GRID     12913   1       7.92916-27.2455-1.15848 1
GRID     12914   1       7.95658-24.5036-1.15415 1
GRID     12915   1       7.61149-25.6934-1.20757 1
GRID     12916   1       7.59239-28.5621-1.21045 1
GRID     12917   1       7.26999-26.9955-1.25804 1
GRID     12918   1       7.26   -30.    -1.25948 1
GRID     12925   1       9.0735 -19.1066-.964581 1
GRID     12926   1       9.36487-20.633 -.910908 1
GRID     12927   1       9.66248-22.0663-.854273 1
GRID     12928   1       9.72241-19.8417-.842647 1
GRID     12929   1       9.43438-18.3491-.897846 1
GRID     12930   1       9.7968 -17.6475-.828111 1
GRID     12931   1       9.51866-16.1021-.881873 1
GRID     12932   1       9.15316-16.7637-.950079 1
GRID     12933   1       9.24785-14.465 -.932674 1
GRID     12934   1       8.87939-15.0791-.999364 1
GRID     12935   1       8.78899-17.4802-1.0153  1
GRID     12936   1       8.51204-15.7464-1.06307 1
GRID     12937   1       8.42632-18.2585-1.07754 1
GRID     12938   1       8.71433-19.9267-1.02834 1
GRID     12939   1       8.35711-20.8171-1.08911 1
GRID     12940   1       8.65582-22.4109-1.03847 1
GRID     12941   1       9.00926-21.487 -.976178 1
GRID     12942   1       8.96078-23.8973-.984874 1
GRID     12943   1       9.31045-22.9473-.921069 1
GRID     12944   1       10.4772-10.8934-.689806 1
GRID     12945   1       10.608 -8.94828-.662103 1
GRID     12946   1       10.3727-7.31111-.711667 1
GRID     12947   1       10.2318-9.28018-.740798 1
GRID     12948   1       9.99488-7.58909-.788842 1
GRID     12949   1       9.8559 -9.63741-.816479 1
GRID     12950   1       10.1033-11.3018-.767015 1
GRID     12951   1       9.72987-11.7415-.841194 1
GRID     12952   1       9.98761-13.3728-.790295 1
GRID     12953   1       10.3587-12.8854-.714575 1
GRID     12954   1       10.253 -14.9209-.736436 1
GRID     12955   1       10.6217-14.3916-.659182 1
GRID     12976   1       9.43438-41.6509-.897843 1
GRID     12977   1       9.7968 -42.3525-.828111 1
GRID     12978   1       9.72241-40.1583-.842647 1
GRID     12979   1       9.36487-39.367 -.910908 1
GRID     12980   1       9.66248-37.9337-.854273 1
GRID     12981   1       9.31045-37.0527-.921066 1
GRID     12982   1       9.00926-38.513 -.976178 1
GRID     12983   1       8.96078-36.1027-.984874 1
GRID     12994   1       9.9    -30.    -.807755 1
GRID     12995   1       10.2318-31.067 -.740807 1
GRID     12996   1       10.5669-32.0666-.670854 1
GRID     12997   1       10.56  -30.    -.67231  1
GRID     12998   1       10.2318-28.933 -.740807 1
GRID     12999   1       10.5669-27.9334-.670854 1
GRID     13000   1       10.246 -26.8021-.737892 1
GRID     13001   1       9.90733-27.7958-.806299 1
GRID     13002   1       9.92929-25.5981-.801937 1
GRID     13003   1       9.58705-26.582 -.8688   1
GRID     13004   1       9.5719 -28.8595-.871705 1
GRID     13005   1       9.24785-27.6385-.932674 1
GRID     13006   1       9.24   -30.    -.934127 1
GRID     13007   1       9.5719 -31.1405-.871705 1
GRID     13008   1       9.24785-32.3615-.932674 1
GRID     13009   1       9.58705-33.418 -.868803 1
GRID     13010   1       9.90733-32.2042-.806299 1
GRID     13011   1       9.92929-34.402 -.801934 1
GRID     13012   1       10.246 -33.1979-.737892 1
GRID     13013   1       10.4425-18.4222-.697098 1
GRID     13014   1       10.3727-20.4847-.71167  1
GRID     13015   1       10.6694-21.7868-.648972 1
GRID     13016   1       10.3166-22.5723-.723326 1
GRID     13017   1       10.6217-23.8216-.659185 1
GRID     13018   1       10.4841-58.1962-.68835  1
GRID     13019   1       10.5735-56.4233-.669455 1
GRID     13025   1       10.608 -51.0517-.6621   1
GRID     13026   1       10.3727-52.6889-.71167  1
GRID     13033   1       10.3587-47.1146-.714585 1
GRID     13034   1       10.253 -45.0791-.736436 1
GRID     13035   1       10.6217-45.6084-.659185 1
GRID     13036   1       10.4425-41.5778-.697098 1
GRID     13037   1       10.3727-39.5153-.71167  1
GRID     13038   1       10.6694-38.2132-.648972 1
GRID     13039   1       10.3166-37.4277-.723326 1
GRID     13040   1       10.6217-36.1784-.659185 1
GRID     13041   1       11.    -58.0359-.57694  1
GRID     13042   1       11.    -1.96408-.57695  1
GRID     13043   1       11.    -3.49173-.576937 1
GRID     13044   1       11.    -5.23762-.576934 1
GRID     13045   1       11.    -7.01366-.576937 1
GRID     13046   1       11.    -8.78974-.576943 1
GRID     13047   1       11.    -10.5658-.57694  1
GRID     13048   1       11.    -12.3419-.576937 1
GRID     13049   1       11.    -14.118 -.576931 1
GRID     13050   1       11.    -15.894 -.576934 1
GRID     13051   1       11.    -17.7099-.57694  1
GRID     13052   1       11.    -19.5258-.57694  1
GRID     13053   1       11.    -21.3417-.57694  1
GRID     13054   1       11.    -23.1576-.57694  1
GRID     13055   1       11.    -24.9735-.57694  1
GRID     13056   1       11.    -26.7894-.57694  1
GRID     13057   1       11.    -29.    -.57694  1
GRID     13058   1       11.    -31.    -.576943 1
GRID     13059   1       11.    -33.2106-.57694  1
GRID     13060   1       11.    -35.0265-.57694  1
GRID     13061   1       11.    -36.8424-.57694  1
GRID     13062   1       11.    -38.6583-.57694  1
GRID     13063   1       11.    -40.4742-.57694  1
GRID     13064   1       11.    -42.2901-.57694  1
GRID     13065   1       11.    -44.106 -.57694  1
GRID     13066   1       11.    -45.882 -.57694  1
GRID     13067   1       11.    -47.6581-.57694  1
GRID     13068   1       11.    -49.4342-.57694  1
GRID     13069   1       11.    -51.2103-.57694  1
GRID     13070   1       11.    -52.9863-.57694  1
GRID     13071   1       11.    -54.7624-.57694  1
GRID     13072   1       11.    -56.5083-.57694  1
GRID     20001   1       4.57261 60.    -1.21815 1
GRID     20003   1       4.57261 0.     -1.21815 1
GRID     20006   1       5.71577 0.     -1.102   1
GRID     20007   1       8.00207 0.     -.79093  1
GRID     20008   1       9.14523 0.     -.595529 1
GRID     20009   1       4.57261 60.    -.862153 1
GRID     20011   1       4.57261 0.     -.862153 1
GRID     20014   1       5.71577 0.     -.745996 1
GRID     20015   1       8.00207 0.     -.43493  1
GRID     20016   1       9.14523 0.     -.239529 1
GRID     20017   1       4.57261 60.    -.506152 1
GRID     20019   1       4.57261 0.     -.506152 1
GRID     20022   1       5.71577 0.     -.389996 1
GRID     20023   1       8.00207 0.     -.07893  1
GRID     20024   1       9.14523 0.      .116471 1
GRID     20025   1       4.57261 60.    -.150152 1
GRID     20027   1       4.57261 0.     -.150152 1
GRID     20030   1       5.71577 0.     -.033996 1
GRID     20031   1       8.00207 0.      .27707  1
GRID     20032   1       9.14523 0.      .472471 1
GRID     20033   1       2.925   0.     -1.33987 1
GRID     20034   1       2.925   60.    -1.33987 1
GRID     20035   1       2.925   0.     -.983872 1
GRID     20036   1       2.925   60.    -.983872 1
GRID     20037   1       2.925   0.     -.627872 1
GRID     20038   1       2.925   60.    -.627872 1
GRID     20039   1       2.925   0.     -.271872 1
GRID     20040   1       2.925   60.    -.271872 1
GRID     20041   1       10.845  60.    -.255001 1
GRID     20042   1       10.845  1.162-6-.255001 1
GRID     20043   1       10.845  60.     .100999 1
GRID     20044   1       10.845  1.162-6 .100999 1
GRID     20045   1       10.845  60.     .456999 1
GRID     20046   1       10.845  1.162-6 .456999 1
GRID     20047   1       10.845  60.     .812999 1
GRID     20048   1       10.845  1.162-6 .812999 1
GRID     20049   1       4.57261 120.   -1.21815 1
GRID     20050   1       4.3945  115.693-1.23391 1
GRID     20051   1       4.24321 111.052-1.24679 1
GRID     20052   1       4.1217  106.102-1.25681 1
GRID     20053   1       3.75292 104.705-1.28543 1
GRID     20054   1       3.38686 103.004-1.31117 1
GRID     20055   1       5.71577 120.   -1.102   1
GRID     20056   1       3.38686 76.9961-1.31117 1
GRID     20057   1       3.75292 75.2953-1.28543 1
GRID     20058   1       4.1217  73.8979-1.25681 1
GRID     20059   1       4.24321 68.9483-1.24679 1
GRID     20060   1       4.3945  64.3066-1.23391 1
GRID     20061   1       4.3945  102.52 -1.23391 1
GRID     20062   1       4.68244 99.367 -1.20813 1
GRID     20063   1       4.98289 96.5868-1.17946 1
GRID     20064   1       4.95367 92.2042-1.18233 1
GRID     20065   1       4.95367 87.7958-1.18233 1
GRID     20068   1       4.3945  77.4802-1.23391 1
GRID     20069   1       5.9155  116.802-1.07902 1
GRID     20070   1       6.13244 113.822-1.05316 1
GRID     20071   1       6.36481 111.052-1.02441 1
GRID     20072   1       6.23808 107.784-1.04022 1
GRID     20073   1       6.13244 104.392-1.05316 1
GRID     20074   1       6.049   100.893-1.06322 1
GRID     20075   1       5.69031 99.6374-1.10487 1
GRID     20076   1       5.33472 98.2132-1.14361 1
GRID     20077   1       8.00207 120.   -.790927 1
GRID     20078   1       7.81852 117.581-.819813 1
GRID     20079   1       7.64955 115.05 -.845793 1
GRID     20080   1       7.49616 112.411-.868876 1
GRID     20081   1       7.11862 112.006-.923654 1
GRID     20082   1       6.74148 111.556-.975496 1
GRID     20083   1       9.14523 120.   -.595532 1
GRID     20093   1       4.95367 60.    -1.18233 1
GRID     20094   1       6.34196 98.6391-1.02728 1
GRID     20095   1       6.64385 96.5868-.988448 1
GRID     20096   1       6.95353 94.715 -.946701 1
GRID     20097   1       6.93262 91.5748-.949583 1
GRID     20098   1       6.93262 88.4252-.949583 1
GRID     20102   1       7.73449 110.174-.832805 1
GRID     20103   1       7.98391 108.073-.793818 1
GRID     20104   1       8.2434  106.102-.75191  1
GRID     20105   1       8.14594 103.526-.767811 1
GRID     20106   1       8.06533 100.893-.780817 1
GRID     20107   1       8.00207 98.2132-.79093  1
GRID     20108   1       7.64955 97.1538-.845793 1
GRID     20109   1       7.29989 95.9926-.897714 1
GRID     20110   1       9.34158 117.976-.559263 1
GRID     20111   1       9.54912 116.037-.520064 1
GRID     20112   1       9.76711 114.183-.477926 1
GRID     20113   1       9.6173  112.111-.506991 1
GRID     20114   1       9.48044 109.977-.533135 1
GRID     20115   1       9.35712 107.784-.556361 1
GRID     20116   1       8.98505 107.27 -.624528 1
GRID     20117   1       8.61378 106.711-.689707 1
GRID     20118   1       10.5256 114.603-.323602 1
GRID     20119   1       10.1463 114.401-.402279 1
GRID     20133   1       8.30482 96.5868-.741788 1
GRID     20134   1       8.61378 95.0759-.689707 1
GRID     20135   1       8.92831 93.6705-.634671 1
GRID     20136   1       8.91204 91.225 -.637571 1
GRID     20137   1       8.91204 88.775 -.637571 1
GRID     20141   1       9.6173  106.102-.506991 1
GRID     20142   1       9.88532 104.511-.454661 1
GRID     20143   1       10.1606 103.004-.399367 1
GRID     20144   1       10.0817 100.893-.41538  1
GRID     20145   1       10.0167 98.7525-.428477 1
GRID     20146   1       9.96578 96.5868-.438663 1
GRID     20147   1       9.6173  95.6847-.506991 1
GRID     20148   1       9.27138 94.715 -.572322 1
GRID     20149   1       10.5256 103.61 -.323602 1
GRID     20162   1       9.96578 83.4132-.438663 1
GRID     20163   1       10.0167 81.2475-.428477 1
GRID     20164   1       10.0817 79.1066-.41538  1
GRID     20165   1       10.1606 76.9961-.399367 1
GRID     20168   1       10.2743 95.3201-.376068 1
GRID     20169   1       10.5875 94.1278-.310477 1
GRID     20170   1       10.5875 85.8722-.310477 1
GRID     20171   1       10.2743 84.6799-.376068 1
GRID     20174   1       10.5256 76.3898-.323602 1
GRID     20175   1       4.57261 120.   -.862153 1
GRID     20176   1       4.3945  115.693-.877907 1
GRID     20177   1       4.24321 111.052-.890793 1
GRID     20178   1       4.1217  106.102-.900812 1
GRID     20179   1       3.75292 104.705-.929431 1
GRID     20180   1       3.38686 103.004-.955174 1
GRID     20181   1       5.71577 120.   -.745996 1
GRID     20182   1       3.38686 76.9961-.955174 1
GRID     20183   1       3.75292 75.2953-.929431 1
GRID     20184   1       4.1217  73.8979-.900812 1
GRID     20185   1       4.24321 68.9483-.890793 1
GRID     20186   1       4.3945  64.3066-.877907 1
GRID     20187   1       4.3945  102.52 -.877907 1
GRID     20188   1       4.68244 99.367 -.852125 1
GRID     20189   1       4.98289 96.5868-.823463 1
GRID     20190   1       4.95367 92.2042-.826329 1
GRID     20191   1       4.95367 87.7958-.826329 1
GRID     20194   1       4.3945  77.4802-.877907 1
GRID     20195   1       5.9155  116.802-.723019 1
GRID     20196   1       6.13244 113.822-.697157 1
GRID     20197   1       6.36481 111.052-.668408 1
GRID     20198   1       6.23808 107.784-.684223 1
GRID     20199   1       6.13244 104.392-.697157 1
GRID     20200   1       6.049   100.893-.707216 1
GRID     20201   1       5.69031 99.6374-.748866 1
GRID     20202   1       5.33472 98.2132-.787613 1
GRID     20203   1       8.00207 120.   -.434927 1
GRID     20204   1       7.81852 117.581-.463813 1
GRID     20205   1       7.64955 115.05 -.489793 1
GRID     20206   1       7.49616 112.411-.512876 1
GRID     20207   1       7.11862 112.006-.567654 1
GRID     20208   1       6.74148 111.556-.619496 1
GRID     20209   1       9.14523 120.   -.239532 1
GRID     20219   1       4.95367 60.    -.826329 1
GRID     20220   1       6.34196 98.6391-.671283 1
GRID     20221   1       6.64385 96.5868-.632448 1
GRID     20222   1       6.95353 94.715 -.590701 1
GRID     20223   1       6.93262 91.5748-.593583 1
GRID     20224   1       6.93262 88.4252-.593583 1
GRID     20228   1       7.73449 110.174-.476805 1
GRID     20229   1       7.98391 108.073-.437818 1
GRID     20230   1       8.2434  106.102-.39591  1
GRID     20231   1       8.14594 103.526-.41181  1
GRID     20232   1       8.06533 100.893-.424817 1
GRID     20233   1       8.00207 98.2132-.43493  1
GRID     20234   1       7.64955 97.1538-.489793 1
GRID     20235   1       7.29989 95.9926-.541714 1
GRID     20236   1       9.34158 117.976-.203263 1
GRID     20237   1       9.54912 116.037-.164064 1
GRID     20238   1       9.76711 114.183-.121926 1
GRID     20239   1       9.6173  112.111-.150991 1
GRID     20240   1       9.48044 109.977-.177135 1
GRID     20241   1       9.35712 107.784-.200361 1
GRID     20242   1       8.98505 107.27 -.268527 1
GRID     20243   1       8.61378 106.711-.333707 1
GRID     20244   1       10.5256 114.603 .032398 1
GRID     20245   1       10.1463 114.401-.046279 1
GRID     20259   1       8.30482 96.5868-.385788 1
GRID     20260   1       8.61378 95.0759-.333707 1
GRID     20261   1       8.92831 93.6705-.278671 1
GRID     20262   1       8.91204 91.225 -.281571 1
GRID     20263   1       8.91204 88.775 -.281571 1
GRID     20267   1       9.6173  106.102-.150991 1
GRID     20268   1       9.88532 104.511-.098661 1
GRID     20269   1       10.1606 103.004-.043367 1
GRID     20270   1       10.0817 100.893-.05938  1
GRID     20271   1       10.0167 98.7525-.072477 1
GRID     20272   1       9.96578 96.5868-.082663 1
GRID     20273   1       9.6173  95.6847-.150991 1
GRID     20274   1       9.27138 94.715 -.216322 1
GRID     20275   1       10.5256 103.61  .032398 1
GRID     20288   1       9.96578 83.4132-.082663 1
GRID     20289   1       10.0167 81.2475-.072477 1
GRID     20290   1       10.0817 79.1066-.05938  1
GRID     20291   1       10.1606 76.9961-.043367 1
GRID     20294   1       10.2743 95.3201-.020068 1
GRID     20295   1       10.5875 94.1278 .045523 1
GRID     20296   1       10.5875 85.8722 .045523 1
GRID     20297   1       10.2743 84.6799-.020068 1
GRID     20300   1       10.5256 76.3898 .032398 1
GRID     20301   1       4.57261 120.   -.506152 1
GRID     20302   1       4.3945  115.693-.521907 1
GRID     20303   1       4.24321 111.052-.534793 1
GRID     20304   1       4.1217  106.102-.544812 1
GRID     20305   1       3.75292 104.705-.573431 1
GRID     20306   1       3.38686 103.004-.599174 1
GRID     20307   1       5.71577 120.   -.389996 1
GRID     20308   1       3.38686 76.9961-.599174 1
GRID     20309   1       3.75292 75.2953-.573431 1
GRID     20310   1       4.1217  73.8979-.544812 1
GRID     20311   1       4.24321 68.9483-.534793 1
GRID     20312   1       4.3945  64.3066-.521907 1
GRID     20313   1       4.3945  102.52 -.521907 1
GRID     20314   1       4.68244 99.367 -.496124 1
GRID     20315   1       4.98289 96.5868-.467463 1
GRID     20316   1       4.95367 92.2042-.470329 1
GRID     20317   1       4.95367 87.7958-.470329 1
GRID     20320   1       4.3945  77.4802-.521907 1
GRID     20321   1       5.9155  116.802-.367019 1
GRID     20322   1       6.13244 113.822-.341157 1
GRID     20323   1       6.36481 111.052-.312408 1
GRID     20324   1       6.23808 107.784-.328223 1
GRID     20325   1       6.13244 104.392-.341157 1
GRID     20326   1       6.049   100.893-.351216 1
GRID     20327   1       5.69031 99.6374-.392865 1
GRID     20328   1       5.33472 98.2132-.431613 1
GRID     20329   1       8.00207 120.   -.078927 1
GRID     20330   1       7.81852 117.581-.107813 1
GRID     20331   1       7.64955 115.05 -.133793 1
GRID     20332   1       7.49616 112.411-.156876 1
GRID     20333   1       7.11862 112.006-.211654 1
GRID     20334   1       6.74148 111.556-.263496 1
GRID     20335   1       9.14523 120.    .116468 1
GRID     20345   1       4.95367 60.    -.470329 1
GRID     20346   1       6.34196 98.6391-.315283 1
GRID     20347   1       6.64385 96.5868-.276448 1
GRID     20348   1       6.95353 94.715 -.234701 1
GRID     20349   1       6.93262 91.5748-.237583 1
GRID     20350   1       6.93262 88.4252-.237583 1
GRID     20354   1       7.73449 110.174-.120804 1
GRID     20355   1       7.98391 108.073-.081818 1
GRID     20356   1       8.2434  106.102-.03991  1
GRID     20357   1       8.14594 103.526-.05581  1
GRID     20358   1       8.06533 100.893-.068817 1
GRID     20359   1       8.00207 98.2132-.07893  1
GRID     20360   1       7.64955 97.1538-.133793 1
GRID     20361   1       7.29989 95.9926-.185714 1
GRID     20362   1       9.34158 117.976 .152737 1
GRID     20363   1       9.54912 116.037 .191936 1
GRID     20364   1       9.76711 114.183 .234074 1
GRID     20365   1       9.6173  112.111 .205009 1
GRID     20366   1       9.48044 109.977 .178865 1
GRID     20367   1       9.35712 107.784 .15564  1
GRID     20368   1       8.98505 107.27  .087473 1
GRID     20369   1       8.61378 106.711 .022294 1
GRID     20370   1       10.5256 114.603 .388398 1
GRID     20371   1       10.1463 114.401 .309721 1
GRID     20385   1       8.30482 96.5868-.029788 1
GRID     20386   1       8.61378 95.0759 .022294 1
GRID     20387   1       8.92831 93.6705 .077329 1
GRID     20388   1       8.91204 91.225  .07443  1
GRID     20389   1       8.91204 88.775  .07443  1
GRID     20393   1       9.6173  106.102 .205009 1
GRID     20394   1       9.88532 104.511 .257339 1
GRID     20395   1       10.1606 103.004 .312633 1
GRID     20396   1       10.0817 100.893 .29662  1
GRID     20397   1       10.0167 98.7525 .283523 1
GRID     20398   1       9.96578 96.5868 .273337 1
GRID     20399   1       9.6173  95.6847 .205009 1
GRID     20400   1       9.27138 94.715  .139679 1
GRID     20401   1       10.5256 103.61  .388398 1
GRID     20414   1       9.96578 83.4132 .273337 1
GRID     20415   1       10.0167 81.2475 .283523 1
GRID     20416   1       10.0817 79.1066 .29662  1
GRID     20417   1       10.1606 76.9961 .312633 1
GRID     20420   1       10.2743 95.3201 .335932 1
GRID     20421   1       10.5875 94.1278 .401523 1
GRID     20422   1       10.5875 85.8722 .401523 1
GRID     20423   1       10.2743 84.6799 .335932 1
GRID     20426   1       10.5256 76.3898 .388398 1
GRID     20427   1       4.57261 120.   -.150152 1
GRID     20428   1       4.3945  115.693-.165907 1
GRID     20429   1       4.24321 111.052-.178793 1
GRID     20430   1       4.1217  106.102-.188812 1
GRID     20431   1       3.75292 104.705-.217431 1
GRID     20432   1       3.38686 103.004-.243174 1
GRID     20433   1       5.71577 120.   -.033996 1
GRID     20434   1       3.38686 76.9961-.243174 1
GRID     20435   1       3.75292 75.2953-.217431 1
GRID     20436   1       4.1217  73.8979-.188812 1
GRID     20437   1       4.24321 68.9483-.178793 1
GRID     20438   1       4.3945  64.3066-.165907 1
GRID     20439   1       4.3945  102.52 -.165907 1
GRID     20440   1       4.68244 99.367 -.140124 1
GRID     20441   1       4.98289 96.5868-.111463 1
GRID     20442   1       4.95367 92.2042-.114329 1
GRID     20443   1       4.95367 87.7958-.114329 1
GRID     20446   1       4.3945  77.4802-.165907 1
GRID     20447   1       5.9155  116.802-.011019 1
GRID     20448   1       6.13244 113.822 .014843 1
GRID     20449   1       6.36481 111.052 .043592 1
GRID     20450   1       6.23808 107.784 .027777 1
GRID     20451   1       6.13244 104.392 .014843 1
GRID     20452   1       6.049   100.893 .004784 1
GRID     20453   1       5.69031 99.6374-.036866 1
GRID     20454   1       5.33472 98.2132-.075613 1
GRID     20455   1       8.00207 120.    .277073 1
GRID     20456   1       7.81852 117.581 .248187 1
GRID     20457   1       7.64955 115.05  .222207 1
GRID     20458   1       7.49616 112.411 .199124 1
GRID     20459   1       7.11862 112.006 .144346 1
GRID     20460   1       6.74148 111.556 .092504 1
GRID     20461   1       9.14523 120.    .472468 1
GRID     20471   1       4.95367 60.    -.114329 1
GRID     20472   1       6.34196 98.6391 .040717 1
GRID     20473   1       6.64385 96.5868 .079552 1
GRID     20474   1       6.95353 94.715  .121299 1
GRID     20475   1       6.93262 91.5748 .118417 1
GRID     20476   1       6.93262 88.4252 .118417 1
GRID     20480   1       7.73449 110.174 .235196 1
GRID     20481   1       7.98391 108.073 .274182 1
GRID     20482   1       8.2434  106.102 .31609  1
GRID     20483   1       8.14594 103.526 .30019  1
GRID     20484   1       8.06533 100.893 .287183 1
GRID     20485   1       8.00207 98.2132 .27707  1
GRID     20486   1       7.64955 97.1538 .222207 1
GRID     20487   1       7.29989 95.9926 .170286 1
GRID     20488   1       9.34158 117.976 .508737 1
GRID     20489   1       9.54912 116.037 .547936 1
GRID     20490   1       9.76711 114.183 .590074 1
GRID     20491   1       9.6173  112.111 .561009 1
GRID     20492   1       9.48044 109.977 .534865 1
GRID     20493   1       9.35712 107.784 .51164  1
GRID     20494   1       8.98505 107.27  .443473 1
GRID     20495   1       8.61378 106.711 .378294 1
GRID     20496   1       10.5256 114.603 .744398 1
GRID     20497   1       10.1463 114.401 .665721 1
GRID     20511   1       8.30482 96.5868 .326212 1
GRID     20512   1       8.61378 95.0759 .378294 1
GRID     20513   1       8.92831 93.6705 .433329 1
GRID     20514   1       8.91204 91.225  .43043  1
GRID     20515   1       8.91204 88.775  .43043  1
GRID     20519   1       9.6173  106.102 .561009 1
GRID     20520   1       9.88532 104.511 .613339 1
GRID     20521   1       10.1606 103.004 .668633 1
GRID     20522   1       10.0817 100.893 .65262  1
GRID     20523   1       10.0167 98.7525 .639523 1
GRID     20524   1       9.96578 96.5868 .629337 1
GRID     20525   1       9.6173  95.6847 .561009 1
GRID     20526   1       9.27138 94.715  .495678 1
GRID     20527   1       10.5256 103.61  .744398 1
GRID     20540   1       9.96578 83.4132 .629337 1
GRID     20541   1       10.0167 81.2475 .639523 1
GRID     20542   1       10.0817 79.1066 .65262  1
GRID     20543   1       10.1606 76.9961 .668633 1
GRID     20546   1       10.2743 95.3201 .691932 1
GRID     20547   1       10.5875 94.1278 .757523 1
GRID     20548   1       10.5875 85.8722 .757523 1
GRID     20549   1       10.2743 84.6799 .691932 1
GRID     20552   1       10.5256 76.3898 .744398 1
GRID     20553   1       2.925   100.   -1.33987 1
GRID     20554   1       2.925   100.   -.983872 1
GRID     20555   1       2.925   100.   -.627872 1
GRID     20556   1       2.925   100.   -.271872 1
GRID     20557   1       2.925   80.    -1.33987 1
GRID     20558   1       2.925   80.    -.983872 1
GRID     20559   1       2.925   80.    -.627872 1
GRID     20560   1       2.925   80.    -.271872 1
GRID     20561   1       2.925   66.6668-1.33987 1
GRID     20562   1       2.925   73.3336-1.33987 1
GRID     20563   1       2.925   86.6668-1.33987 1
GRID     20564   1       2.925   93.3336-1.33987 1
GRID     20565   1       2.925   106.667-1.33987 1
GRID     20566   1       2.925   113.334-1.33987 1
GRID     20567   1       2.925   120.   -1.33987 1
GRID     20568   1       2.925   66.6668-.983872 1
GRID     20569   1       2.925   73.3336-.983872 1
GRID     20570   1       2.925   86.6668-.983872 1
GRID     20571   1       2.925   93.3336-.983872 1
GRID     20572   1       2.925   106.667-.983869 1
GRID     20573   1       2.925   113.334-.983869 1
GRID     20574   1       2.925   120.   -.983872 1
GRID     20575   1       2.925   66.6668-.627872 1
GRID     20576   1       2.925   73.3336-.627872 1
GRID     20577   1       2.925   86.6668-.627872 1
GRID     20578   1       2.925   93.3336-.627872 1
GRID     20579   1       2.925   106.667-.627869 1
GRID     20580   1       2.925   113.334-.627869 1
GRID     20581   1       2.925   120.   -.627872 1
GRID     20582   1       2.925   66.6668-.271872 1
GRID     20583   1       2.925   73.3336-.271872 1
GRID     20584   1       2.925   86.6668-.271872 1
GRID     20585   1       2.925   93.3336-.271872 1
GRID     20586   1       2.925   106.667-.271869 1
GRID     20587   1       2.925   113.334-.271869 1
GRID     20588   1       2.925   120.   -.271872 1
GRID     20589   1       10.845  114.762-.255004 1
GRID     20590   1       10.845  114.762 .100996 1
GRID     20591   1       10.845  114.762 .456996 1
GRID     20592   1       10.845  114.762 .812996 1
GRID     20593   1       10.845  104.106-.255001 1
GRID     20594   1       10.845  104.106 .100999 1
GRID     20595   1       10.845  104.106 .456999 1
GRID     20596   1       10.845  104.106 .812999 1
GRID     20597   1       10.845  93.2106-.254998 1
GRID     20598   1       10.845  93.2106 .101002 1
GRID     20599   1       10.845  93.2106 .457002 1
GRID     20600   1       10.845  93.2106 .813002 1
GRID     20601   1       10.845  86.7894-.254998 1
GRID     20602   1       10.845  86.7894 .101002 1
GRID     20603   1       10.845  86.7894 .457002 1
GRID     20604   1       10.845  86.7894 .813002 1
GRID     20605   1       10.845  75.894 -.255001 1
GRID     20606   1       10.845  75.894  .100999 1
GRID     20607   1       10.845  75.894  .456999 1
GRID     20608   1       10.845  75.894  .812999 1
GRID     20609   1       10.845  65.2376-.255004 1
GRID     20610   1       10.845  65.2376 .100996 1
GRID     20611   1       10.845  65.2376 .456996 1
GRID     20612   1       10.845  65.2376 .812996 1
GRID     20613   1       10.845  118.036-.255004 1
GRID     20614   1       10.845  120.   -.255001 1
GRID     20615   1       10.845  116.508-.255004 1
GRID     20616   1       10.845  112.986-.255004 1
GRID     20617   1       10.845  111.21 -.255013 1
GRID     20618   1       10.845  109.434-.255001 1
GRID     20619   1       10.845  107.658-.255007 1
GRID     20620   1       10.845  105.882-.255007 1
GRID     20621   1       10.845  102.29 -.254995 1
GRID     20622   1       10.845  100.474-.255001 1
GRID     20623   1       10.845  98.6583-.255004 1
GRID     20624   1       10.845  96.8424-.254992 1
GRID     20625   1       10.845  95.0265-.255001 1
GRID     20626   1       10.845  91.0001-.255013 1
GRID     20627   1       10.845  89.    -.255013 1
GRID     20628   1       10.845  84.9735-.255001 1
GRID     20629   1       10.845  83.1576-.254992 1
GRID     20630   1       10.845  81.3417-.255004 1
GRID     20631   1       10.845  79.5258-.255001 1
GRID     20632   1       10.845  77.7099-.254995 1
GRID     20633   1       10.845  74.118 -.255007 1
GRID     20634   1       10.845  72.3419-.255007 1
GRID     20635   1       10.845  70.5658-.255001 1
GRID     20636   1       10.845  68.7897-.255013 1
GRID     20637   1       10.845  67.0137-.255001 1
GRID     20639   1       10.845  61.9641-.255004 1
GRID     20640   1       10.845  118.036 .100996 1
GRID     20641   1       10.845  120.    .100999 1
GRID     20642   1       10.845  116.508 .100996 1
GRID     20643   1       10.845  112.986 .100996 1
GRID     20644   1       10.845  111.21  .100987 1
GRID     20645   1       10.845  109.434 .100999 1
GRID     20646   1       10.845  107.658 .100993 1
GRID     20647   1       10.845  105.882 .100993 1
GRID     20648   1       10.845  102.29  .101005 1
GRID     20649   1       10.845  100.474 .100999 1
GRID     20650   1       10.845  98.6583 .100996 1
GRID     20651   1       10.845  96.8424 .101008 1
GRID     20652   1       10.845  95.0265 .100999 1
GRID     20653   1       10.845  91.0001 .100987 1
GRID     20654   1       10.845  89.     .100987 1
GRID     20655   1       10.845  84.9735 .100999 1
GRID     20656   1       10.845  83.1576 .101008 1
GRID     20657   1       10.845  81.3417 .100996 1
GRID     20658   1       10.845  79.5258 .100999 1
GRID     20659   1       10.845  77.7099 .101005 1
GRID     20660   1       10.845  74.118  .100993 1
GRID     20661   1       10.845  72.3419 .100993 1
GRID     20662   1       10.845  70.5658 .100999 1
GRID     20663   1       10.845  68.7897 .100987 1
GRID     20664   1       10.845  67.0137 .100999 1
GRID     20666   1       10.845  61.9641 .100996 1
GRID     20667   1       10.845  118.036 .456996 1
GRID     20668   1       10.845  120.    .456999 1
GRID     20669   1       10.845  116.508 .456996 1
GRID     20670   1       10.845  112.986 .456996 1
GRID     20671   1       10.845  111.21  .456987 1
GRID     20672   1       10.845  109.434 .456999 1
GRID     20673   1       10.845  107.658 .456993 1
GRID     20674   1       10.845  105.882 .456993 1
GRID     20675   1       10.845  102.29  .457005 1
GRID     20676   1       10.845  100.474 .456999 1
GRID     20677   1       10.845  98.6583 .456996 1
GRID     20678   1       10.845  96.8424 .457008 1
GRID     20679   1       10.845  95.0265 .456999 1
GRID     20680   1       10.845  91.0001 .456987 1
GRID     20681   1       10.845  89.     .456987 1
GRID     20682   1       10.845  84.9735 .456999 1
GRID     20683   1       10.845  83.1576 .457008 1
GRID     20684   1       10.845  81.3417 .456996 1
GRID     20685   1       10.845  79.5258 .456999 1
GRID     20686   1       10.845  77.7099 .457005 1
GRID     20687   1       10.845  74.118  .456993 1
GRID     20688   1       10.845  72.3419 .456993 1
GRID     20689   1       10.845  70.5658 .456999 1
GRID     20690   1       10.845  68.7897 .456987 1
GRID     20691   1       10.845  67.0137 .456999 1
GRID     20693   1       10.845  61.9641 .456996 1
GRID     20694   1       10.845  118.036 .812996 1
GRID     20695   1       10.845  120.    .812999 1
GRID     20696   1       10.845  116.508 .812996 1
GRID     20697   1       10.845  112.986 .812996 1
GRID     20698   1       10.845  111.21  .812987 1
GRID     20699   1       10.845  109.434 .812999 1
GRID     20700   1       10.845  107.658 .812993 1
GRID     20701   1       10.845  105.882 .812993 1
GRID     20702   1       10.845  102.29  .813005 1
GRID     20703   1       10.845  100.474 .812999 1
GRID     20704   1       10.845  98.6583 .812996 1
GRID     20705   1       10.845  96.8424 .813008 1
GRID     20706   1       10.845  95.0265 .812999 1
GRID     20707   1       10.845  91.0001 .812987 1
GRID     20708   1       10.845  89.     .812987 1
GRID     20709   1       10.845  84.9735 .812999 1
GRID     20710   1       10.845  83.1576 .813008 1
GRID     20711   1       10.845  81.3417 .812996 1
GRID     20712   1       10.845  79.5258 .812999 1
GRID     20713   1       10.845  77.7099 .813005 1
GRID     20714   1       10.845  74.118  .812993 1
GRID     20715   1       10.845  72.3419 .812993 1
GRID     20716   1       10.845  70.5658 .812999 1
GRID     20717   1       10.845  68.7897 .812987 1
GRID     20718   1       10.845  67.0137 .812999 1
GRID     20720   1       10.845  61.9641 .812996 1
GRID     20722   1       4.3945  175.693-1.23391 1
GRID     20723   1       4.24321 171.052-1.24679 1
GRID     20724   1       4.1217  166.102-1.25681 1
GRID     20725   1       3.75292 164.705-1.28543 1
GRID     20726   1       3.38686 163.004-1.31117 1
GRID     20728   1       3.38686 136.996-1.31117 1
GRID     20729   1       3.75292 135.295-1.28543 1
GRID     20730   1       4.1217  133.898-1.25681 1
GRID     20731   1       4.24321 128.948-1.24679 1
GRID     20732   1       4.3945  124.307-1.23391 1
GRID     20733   1       4.3945  162.52 -1.23391 1
GRID     20734   1       4.68244 159.367-1.20813 1
GRID     20735   1       4.98289 156.587-1.17946 1
GRID     20736   1       4.95367 152.204-1.18233 1
GRID     20737   1       4.95367 147.796-1.18233 1
GRID     20738   1       4.98289 143.413-1.17946 1
GRID     20739   1       4.68244 140.633-1.20813 1
GRID     20740   1       4.3945  137.48 -1.23391 1
GRID     20745   1       6.13244 164.392-1.05316 1
GRID     20746   1       6.049   160.893-1.06322 1
GRID     20747   1       5.69031 159.637-1.10487 1
GRID     20748   1       5.33472 158.213-1.14361 1
GRID     20756   1       5.33472 141.787-1.14361 1
GRID     20757   1       5.69031 140.363-1.10487 1
GRID     20758   1       6.049   139.107-1.06322 1
GRID     20759   1       6.13244 135.608-1.05316 1
GRID     20760   1       6.23808 132.216-1.04022 1
GRID     20761   1       6.36481 128.948-1.02441 1
GRID     20762   1       6.13244 126.178-1.05316 1
GRID     20763   1       5.91551 123.198-1.07902 1
GRID     20764   1       5.33472 120.   -1.14361 1
GRID     20765   1       4.95367 120.   -1.18233 1
GRID     20766   1       6.34196 158.639-1.02728 1
GRID     20767   1       6.64385 156.587-.988448 1
GRID     20768   1       6.95353 154.715-.946701 1
GRID     20769   1       6.93262 151.575-.949583 1
GRID     20770   1       6.93262 148.425-.949583 1
GRID     20771   1       6.95353 145.285-.946701 1
GRID     20772   1       6.64386 143.413-.988448 1
GRID     20773   1       6.34196 141.361-1.02728 1
GRID     20775   1       7.98391 168.073-.793818 1
GRID     20776   1       8.2434  166.102-.75191  1
GRID     20777   1       8.14594 163.526-.767811 1
GRID     20778   1       8.06533 160.893-.780817 1
GRID     20779   1       8.00207 158.213-.790927 1
GRID     20780   1       7.64955 157.154-.845793 1
GRID     20781   1       7.29989 155.993-.897714 1
GRID     20786   1       9.48044 169.977-.533135 1
GRID     20787   1       9.35712 167.784-.556361 1
GRID     20788   1       8.98505 167.27 -.624528 1
GRID     20789   1       8.61378 166.711-.689707 1
GRID     20790   1       10.5256 174.603-.323605 1
GRID     20792   1       6.74148 128.445-.975496 1
GRID     20793   1       7.11862 127.994-.923654 1
GRID     20794   1       7.49616 127.589-.868876 1
GRID     20795   1       7.64955 124.95 -.845793 1
GRID     20796   1       7.81852 122.419-.819813 1
GRID     20797   1       7.29989 144.007-.897714 1
GRID     20798   1       7.64955 142.846-.845793 1
GRID     20799   1       8.00207 141.787-.79093  1
GRID     20800   1       8.06533 139.107-.780814 1
GRID     20801   1       8.14594 136.474-.767811 1
GRID     20802   1       8.2434  133.898-.75191  1
GRID     20803   1       7.98391 131.927-.793818 1
GRID     20804   1       7.73449 129.826-.832805 1
GRID     20805   1       8.30482 156.587-.741791 1
GRID     20806   1       8.61378 155.076-.689707 1
GRID     20807   1       8.92831 153.671-.634671 1
GRID     20808   1       8.91204 151.225-.637571 1
GRID     20809   1       8.91204 148.775-.637571 1
GRID     20810   1       8.92831 146.33 -.634671 1
GRID     20811   1       8.61378 144.924-.689707 1
GRID     20812   1       8.30482 143.413-.741788 1
GRID     20813   1       9.6173  166.102-.506991 1
GRID     20814   1       9.88532 164.51 -.454661 1
GRID     20815   1       10.1606 163.004-.399367 1
GRID     20816   1       10.0817 160.893-.41538  1
GRID     20817   1       10.0167 158.753-.428477 1
GRID     20818   1       9.96578 156.587-.438663 1
GRID     20819   1       9.6173  155.685-.506988 1
GRID     20820   1       9.27138 154.715-.572322 1
GRID     20821   1       10.5256 163.61 -.323593 1
GRID     20822   1       8.61378 133.289-.689707 1
GRID     20823   1       8.98505 132.731-.624528 1
GRID     20824   1       9.35712 132.216-.556361 1
GRID     20825   1       9.48044 130.023-.533132 1
GRID     20826   1       9.6173  127.889-.506991 1
GRID     20827   1       9.76711 125.818-.477926 1
GRID     20828   1       9.54912 123.963-.520061 1
GRID     20829   1       9.34158 122.024-.559263 1
GRID     20830   1       8.76418 120.   -.663645 1
GRID     20831   1       8.38313 120.   -.728775 1
GRID     20832   1       9.27138 145.285-.572322 1
GRID     20833   1       9.6173  144.315-.506991 1
GRID     20834   1       9.96578 143.413-.43866  1
GRID     20835   1       10.0167 141.248-.428477 1
GRID     20836   1       10.0817 139.107-.41538  1
GRID     20837   1       10.1606 136.996-.399367 1
GRID     20838   1       9.88532 135.49 -.454661 1
GRID     20839   1       9.6173  133.898-.506988 1
GRID     20840   1       10.2743 155.32 -.376068 1
GRID     20841   1       10.5875 154.128-.310477 1
GRID     20842   1       10.5875 145.872-.310477 1
GRID     20843   1       10.2743 144.68 -.376068 1
GRID     20844   1       10.1463 125.599-.402279 1
GRID     20845   1       10.5256 125.397-.323602 1
GRID     20846   1       10.5256 136.39 -.323602 1
GRID     20848   1       4.3945  175.693-.877907 1
GRID     20849   1       4.24321 171.052-.890793 1
GRID     20850   1       4.1217  166.102-.900812 1
GRID     20851   1       3.75292 164.705-.929431 1
GRID     20852   1       3.38686 163.004-.955174 1
GRID     20854   1       3.38686 136.996-.955174 1
GRID     20855   1       3.75292 135.295-.929431 1
GRID     20856   1       4.1217  133.898-.900812 1
GRID     20857   1       4.24321 128.948-.890793 1
GRID     20858   1       4.3945  124.307-.877907 1
GRID     20859   1       4.3945  162.52 -.877907 1
GRID     20860   1       4.68244 159.367-.852125 1
GRID     20861   1       4.98289 156.587-.823463 1
GRID     20862   1       4.95367 152.204-.826329 1
GRID     20863   1       4.95367 147.796-.826329 1
GRID     20864   1       4.98289 143.413-.823463 1
GRID     20865   1       4.68244 140.633-.852125 1
GRID     20866   1       4.3945  137.48 -.877907 1
GRID     20871   1       6.13244 164.392-.697157 1
GRID     20872   1       6.049   160.893-.707216 1
GRID     20873   1       5.69031 159.637-.748866 1
GRID     20874   1       5.33472 158.213-.787613 1
GRID     20882   1       5.33472 141.787-.787613 1
GRID     20883   1       5.69031 140.363-.748866 1
GRID     20884   1       6.049   139.107-.707216 1
GRID     20885   1       6.13244 135.608-.697157 1
GRID     20886   1       6.23808 132.216-.684223 1
GRID     20887   1       6.36481 128.948-.668408 1
GRID     20888   1       6.13244 126.178-.697157 1
GRID     20889   1       5.91551 123.198-.723019 1
GRID     20890   1       5.33472 120.   -.787613 1
GRID     20891   1       4.95367 120.   -.826329 1
GRID     20892   1       6.34196 158.639-.671283 1
GRID     20893   1       6.64385 156.587-.632448 1
GRID     20894   1       6.95353 154.715-.590701 1
GRID     20895   1       6.93262 151.575-.593583 1
GRID     20896   1       6.93262 148.425-.593583 1
GRID     20897   1       6.95353 145.285-.590701 1
GRID     20898   1       6.64386 143.413-.632448 1
GRID     20899   1       6.34196 141.361-.671283 1
GRID     20901   1       7.98391 168.073-.437818 1
GRID     20902   1       8.2434  166.102-.39591  1
GRID     20903   1       8.14594 163.526-.41181  1
GRID     20904   1       8.06533 160.893-.424817 1
GRID     20905   1       8.00207 158.213-.434927 1
GRID     20906   1       7.64955 157.154-.489793 1
GRID     20907   1       7.29989 155.993-.541714 1
GRID     20912   1       9.48044 169.977-.177135 1
GRID     20913   1       9.35712 167.784-.200361 1
GRID     20914   1       8.98505 167.27 -.268527 1
GRID     20915   1       8.61378 166.711-.333707 1
GRID     20916   1       10.5256 174.603 .032395 1
GRID     20918   1       6.74148 128.445-.619496 1
GRID     20919   1       7.11862 127.994-.567654 1
GRID     20920   1       7.49616 127.589-.512876 1
GRID     20921   1       7.64955 124.95 -.489793 1
GRID     20922   1       7.81852 122.419-.463813 1
GRID     20923   1       7.29989 144.007-.541714 1
GRID     20924   1       7.64955 142.846-.489793 1
GRID     20925   1       8.00207 141.787-.43493  1
GRID     20926   1       8.06533 139.107-.424814 1
GRID     20927   1       8.14594 136.474-.41181  1
GRID     20928   1       8.2434  133.898-.39591  1
GRID     20929   1       7.98391 131.927-.437818 1
GRID     20930   1       7.73449 129.826-.476805 1
GRID     20931   1       8.30482 156.587-.385791 1
GRID     20932   1       8.61378 155.076-.333707 1
GRID     20933   1       8.92831 153.671-.278671 1
GRID     20934   1       8.91204 151.225-.281571 1
GRID     20935   1       8.91204 148.775-.281571 1
GRID     20936   1       8.92831 146.33 -.278671 1
GRID     20937   1       8.61378 144.924-.333707 1
GRID     20938   1       8.30482 143.413-.385788 1
GRID     20939   1       9.6173  166.102-.150991 1
GRID     20940   1       9.88532 164.51 -.098661 1
GRID     20941   1       10.1606 163.004-.043367 1
GRID     20942   1       10.0817 160.893-.05938  1
GRID     20943   1       10.0167 158.753-.072477 1
GRID     20944   1       9.96578 156.587-.082663 1
GRID     20945   1       9.6173  155.685-.150988 1
GRID     20946   1       9.27138 154.715-.216322 1
GRID     20947   1       10.5256 163.61  .032407 1
GRID     20948   1       8.61378 133.289-.333707 1
GRID     20949   1       8.98505 132.731-.268527 1
GRID     20950   1       9.35712 132.216-.200361 1
GRID     20951   1       9.48044 130.023-.177132 1
GRID     20952   1       9.6173  127.889-.150991 1
GRID     20953   1       9.76711 125.818-.121926 1
GRID     20954   1       9.54912 123.963-.164061 1
GRID     20955   1       9.34158 122.024-.203263 1
GRID     20956   1       8.76418 120.   -.307645 1
GRID     20957   1       8.38313 120.   -.372775 1
GRID     20958   1       9.27138 145.285-.216322 1
GRID     20959   1       9.6173  144.315-.150991 1
GRID     20960   1       9.96578 143.413-.08266  1
GRID     20961   1       10.0167 141.248-.072477 1
GRID     20962   1       10.0817 139.107-.05938  1
GRID     20963   1       10.1606 136.996-.043367 1
GRID     20964   1       9.88532 135.49 -.098661 1
GRID     20965   1       9.6173  133.898-.150988 1
GRID     20966   1       10.2743 155.32 -.020068 1
GRID     20967   1       10.5875 154.128 .045523 1
GRID     20968   1       10.5875 145.872 .045523 1
GRID     20969   1       10.2743 144.68 -.020068 1
GRID     20970   1       10.1463 125.599-.046279 1
GRID     20971   1       10.5256 125.397 .032398 1
GRID     20972   1       10.5256 136.39  .032398 1
GRID     20974   1       4.3945  175.693-.521907 1
GRID     20975   1       4.24321 171.052-.534793 1
GRID     20976   1       4.1217  166.102-.544812 1
GRID     20977   1       3.75292 164.705-.573431 1
GRID     20978   1       3.38686 163.004-.599174 1
GRID     20980   1       3.38686 136.996-.599174 1
GRID     20981   1       3.75292 135.295-.573431 1
GRID     20982   1       4.1217  133.898-.544812 1
GRID     20983   1       4.24321 128.948-.534793 1
GRID     20984   1       4.3945  124.307-.521907 1
GRID     20985   1       4.3945  162.52 -.521907 1
GRID     20986   1       4.68244 159.367-.496124 1
GRID     20987   1       4.98289 156.587-.467463 1
GRID     20988   1       4.95367 152.204-.470329 1
GRID     20989   1       4.95367 147.796-.470329 1
GRID     20990   1       4.98289 143.413-.467463 1
GRID     20991   1       4.68244 140.633-.496124 1
GRID     20992   1       4.3945  137.48 -.521907 1
GRID     20997   1       6.13244 164.392-.341157 1
GRID     20998   1       6.049   160.893-.351216 1
GRID     20999   1       5.69031 159.637-.392865 1
GRID     21000   1       5.33472 158.213-.431613 1
GRID     21008   1       5.33472 141.787-.431613 1
GRID     21009   1       5.69031 140.363-.392865 1
GRID     21010   1       6.049   139.107-.351216 1
GRID     21011   1       6.13244 135.608-.341157 1
GRID     21012   1       6.23808 132.216-.328223 1
GRID     21013   1       6.36481 128.948-.312408 1
GRID     21014   1       6.13244 126.178-.341157 1
GRID     21015   1       5.91551 123.198-.367019 1
GRID     21016   1       5.33472 120.   -.431613 1
GRID     21017   1       4.95367 120.   -.470329 1
GRID     21018   1       6.34196 158.639-.315283 1
GRID     21019   1       6.64385 156.587-.276448 1
GRID     21020   1       6.95353 154.715-.234701 1
GRID     21021   1       6.93262 151.575-.237583 1
GRID     21022   1       6.93262 148.425-.237583 1
GRID     21023   1       6.95353 145.285-.234701 1
GRID     21024   1       6.64386 143.413-.276448 1
GRID     21025   1       6.34196 141.361-.315283 1
GRID     21027   1       7.98391 168.073-.081818 1
GRID     21028   1       8.2434  166.102-.03991  1
GRID     21029   1       8.14594 163.526-.05581  1
GRID     21030   1       8.06533 160.893-.068817 1
GRID     21031   1       8.00207 158.213-.078927 1
GRID     21032   1       7.64955 157.154-.133793 1
GRID     21033   1       7.29989 155.993-.185714 1
GRID     21038   1       9.48044 169.977 .178865 1
GRID     21039   1       9.35712 167.784 .15564  1
GRID     21040   1       8.98505 167.27  .087473 1
GRID     21041   1       8.61378 166.711 .022294 1
GRID     21042   1       10.5256 174.603 .388395 1
GRID     21044   1       6.74148 128.445-.263496 1
GRID     21045   1       7.11862 127.994-.211654 1
GRID     21046   1       7.49616 127.589-.156876 1
GRID     21047   1       7.64955 124.95 -.133793 1
GRID     21048   1       7.81852 122.419-.107813 1
GRID     21049   1       7.29989 144.007-.185714 1
GRID     21050   1       7.64955 142.846-.133793 1
GRID     21051   1       8.00207 141.787-.07893  1
GRID     21052   1       8.06533 139.107-.068814 1
GRID     21053   1       8.14594 136.474-.05581  1
GRID     21054   1       8.2434  133.898-.03991  1
GRID     21055   1       7.98391 131.927-.081818 1
GRID     21056   1       7.73449 129.826-.120804 1
GRID     21057   1       8.30482 156.587-.029791 1
GRID     21058   1       8.61378 155.076 .022294 1
GRID     21059   1       8.92831 153.671 .077329 1
GRID     21060   1       8.91204 151.225 .07443  1
GRID     21061   1       8.91204 148.775 .07443  1
GRID     21062   1       8.92831 146.33  .077329 1
GRID     21063   1       8.61378 144.924 .022294 1
GRID     21064   1       8.30482 143.413-.029788 1
GRID     21065   1       9.6173  166.102 .205009 1
GRID     21066   1       9.88532 164.51  .257339 1
GRID     21067   1       10.1606 163.004 .312633 1
GRID     21068   1       10.0817 160.893 .29662  1
GRID     21069   1       10.0167 158.753 .283523 1
GRID     21070   1       9.96578 156.587 .273337 1
GRID     21071   1       9.6173  155.685 .205012 1
GRID     21072   1       9.27138 154.715 .139679 1
GRID     21073   1       10.5256 163.61  .388408 1
GRID     21074   1       8.61378 133.289 .022294 1
GRID     21075   1       8.98505 132.731 .087473 1
GRID     21076   1       9.35712 132.216 .15564  1
GRID     21077   1       9.48044 130.023 .178869 1
GRID     21078   1       9.6173  127.889 .205009 1
GRID     21079   1       9.76711 125.818 .234074 1
GRID     21080   1       9.54912 123.963 .191939 1
GRID     21081   1       9.34158 122.024 .152737 1
GRID     21082   1       8.76418 120.    .048356 1
GRID     21083   1       8.38313 120.   -.016775 1
GRID     21084   1       9.27138 145.285 .139679 1
GRID     21085   1       9.6173  144.315 .205009 1
GRID     21086   1       9.96578 143.413 .27334  1
GRID     21087   1       10.0167 141.248 .283523 1
GRID     21088   1       10.0817 139.107 .29662  1
GRID     21089   1       10.1606 136.996 .312633 1
GRID     21090   1       9.88532 135.49  .257339 1
GRID     21091   1       9.6173  133.898 .205012 1
GRID     21092   1       10.2743 155.32  .335932 1
GRID     21093   1       10.5875 154.128 .401523 1
GRID     21094   1       10.5875 145.872 .401523 1
GRID     21095   1       10.2743 144.68  .335932 1
GRID     21096   1       10.1463 125.599 .309721 1
GRID     21097   1       10.5256 125.397 .388398 1
GRID     21098   1       10.5256 136.39  .388398 1
GRID     21100   1       4.3945  175.693-.165907 1
GRID     21101   1       4.24321 171.052-.178793 1
GRID     21102   1       4.1217  166.102-.188812 1
GRID     21103   1       3.75292 164.705-.217431 1
GRID     21104   1       3.38686 163.004-.243174 1
GRID     21106   1       3.38686 136.996-.243174 1
GRID     21107   1       3.75292 135.295-.217431 1
GRID     21108   1       4.1217  133.898-.188812 1
GRID     21109   1       4.24321 128.948-.178793 1
GRID     21110   1       4.3945  124.307-.165907 1
GRID     21111   1       4.3945  162.52 -.165907 1
GRID     21112   1       4.68244 159.367-.140124 1
GRID     21113   1       4.98289 156.587-.111463 1
GRID     21114   1       4.95367 152.204-.114329 1
GRID     21115   1       4.95367 147.796-.114329 1
GRID     21116   1       4.98289 143.413-.111463 1
GRID     21117   1       4.68244 140.633-.140124 1
GRID     21118   1       4.3945  137.48 -.165907 1
GRID     21123   1       6.13244 164.392 .014843 1
GRID     21124   1       6.049   160.893 .004784 1
GRID     21125   1       5.69031 159.637-.036866 1
GRID     21126   1       5.33472 158.213-.075613 1
GRID     21134   1       5.33472 141.787-.075613 1
GRID     21135   1       5.69031 140.363-.036866 1
GRID     21136   1       6.049   139.107 .004784 1
GRID     21137   1       6.13244 135.608 .014843 1
GRID     21138   1       6.23808 132.216 .027777 1
GRID     21139   1       6.36481 128.948 .043592 1
GRID     21140   1       6.13244 126.178 .014843 1
GRID     21141   1       5.91551 123.198-.011019 1
GRID     21142   1       5.33472 120.   -.075613 1
GRID     21143   1       4.95367 120.   -.114329 1
GRID     21144   1       6.34196 158.639 .040717 1
GRID     21145   1       6.64385 156.587 .079552 1
GRID     21146   1       6.95353 154.715 .121299 1
GRID     21147   1       6.93262 151.575 .118417 1
GRID     21148   1       6.93262 148.425 .118417 1
GRID     21149   1       6.95353 145.285 .121299 1
GRID     21150   1       6.64386 143.413 .079552 1
GRID     21151   1       6.34196 141.361 .040717 1
GRID     21153   1       7.98391 168.073 .274182 1
GRID     21154   1       8.2434  166.102 .31609  1
GRID     21155   1       8.14594 163.526 .30019  1
GRID     21156   1       8.06533 160.893 .287183 1
GRID     21157   1       8.00207 158.213 .277073 1
GRID     21158   1       7.64955 157.154 .222207 1
GRID     21159   1       7.29989 155.993 .170286 1
GRID     21164   1       9.48044 169.977 .534865 1
GRID     21165   1       9.35712 167.784 .51164  1
GRID     21166   1       8.98505 167.27  .443473 1
GRID     21167   1       8.61378 166.711 .378294 1
GRID     21168   1       10.5256 174.603 .744395 1
GRID     21170   1       6.74148 128.445 .092504 1
GRID     21171   1       7.11862 127.994 .144346 1
GRID     21172   1       7.49616 127.589 .199124 1
GRID     21173   1       7.64955 124.95  .222207 1
GRID     21174   1       7.81852 122.419 .248187 1
GRID     21175   1       7.29989 144.007 .170286 1
GRID     21176   1       7.64955 142.846 .222207 1
GRID     21177   1       8.00207 141.787 .27707  1
GRID     21178   1       8.06533 139.107 .287186 1
GRID     21179   1       8.14594 136.474 .30019  1
GRID     21180   1       8.2434  133.898 .31609  1
GRID     21181   1       7.98391 131.927 .274182 1
GRID     21182   1       7.73449 129.826 .235196 1
GRID     21183   1       8.30482 156.587 .326209 1
GRID     21184   1       8.61378 155.076 .378294 1
GRID     21185   1       8.92831 153.671 .433329 1
GRID     21186   1       8.91204 151.225 .43043  1
GRID     21187   1       8.91204 148.775 .43043  1
GRID     21188   1       8.92831 146.33  .433329 1
GRID     21189   1       8.61378 144.924 .378294 1
GRID     21190   1       8.30482 143.413 .326212 1
GRID     21191   1       9.6173  166.102 .561009 1
GRID     21192   1       9.88532 164.51  .613339 1
GRID     21193   1       10.1606 163.004 .668633 1
GRID     21194   1       10.0817 160.893 .65262  1
GRID     21195   1       10.0167 158.753 .639523 1
GRID     21196   1       9.96578 156.587 .629337 1
GRID     21197   1       9.6173  155.685 .561012 1
GRID     21198   1       9.27138 154.715 .495678 1
GRID     21199   1       10.5256 163.61  .744407 1
GRID     21200   1       8.61378 133.289 .378294 1
GRID     21201   1       8.98505 132.731 .443473 1
GRID     21202   1       9.35712 132.216 .51164  1
GRID     21203   1       9.48044 130.023 .534868 1
GRID     21204   1       9.6173  127.889 .561009 1
GRID     21205   1       9.76711 125.818 .590074 1
GRID     21206   1       9.54912 123.963 .547939 1
GRID     21207   1       9.34158 122.024 .508737 1
GRID     21208   1       8.76418 120.    .404356 1
GRID     21209   1       8.38313 120.    .339225 1
GRID     21210   1       9.27138 145.285 .495678 1
GRID     21211   1       9.6173  144.315 .561009 1
GRID     21212   1       9.96578 143.413 .62934  1
GRID     21213   1       10.0167 141.248 .639523 1
GRID     21214   1       10.0817 139.107 .65262  1
GRID     21215   1       10.1606 136.996 .668633 1
GRID     21216   1       9.88532 135.49  .613339 1
GRID     21217   1       9.6173  133.898 .561012 1
GRID     21218   1       10.2743 155.32  .691932 1
GRID     21219   1       10.5875 154.128 .757523 1
GRID     21220   1       10.5875 145.872 .757523 1
GRID     21221   1       10.2743 144.68  .691932 1
GRID     21222   1       10.1463 125.599 .665721 1
GRID     21223   1       10.5256 125.397 .744398 1
GRID     21224   1       10.5256 136.39  .744398 1
GRID     21225   1       2.925   160.   -1.33987 1
GRID     21226   1       2.925   160.   -.983872 1
GRID     21227   1       2.925   160.   -.627872 1
GRID     21228   1       2.925   160.   -.271872 1
GRID     21229   1       2.925   140.   -1.33987 1
GRID     21230   1       2.925   140.   -.983872 1
GRID     21231   1       2.925   140.   -.627872 1
GRID     21232   1       2.925   140.   -.271872 1
GRID     21233   1       2.925   126.667-1.33987 1
GRID     21234   1       2.925   133.334-1.33987 1
GRID     21235   1       2.925   146.667-1.33987 1
GRID     21236   1       2.925   153.334-1.33987 1
GRID     21237   1       2.925   166.667-1.33987 1
GRID     21238   1       2.925   173.334-1.33987 1
GRID     21239   1       2.925   180.   -1.33987 1
GRID     21240   1       2.925   126.667-.983872 1
GRID     21241   1       2.925   133.334-.983869 1
GRID     21242   1       2.925   146.667-.983869 1
GRID     21243   1       2.925   153.334-.983872 1
GRID     21244   1       2.925   166.667-.983869 1
GRID     21245   1       2.925   173.334-.983872 1
GRID     21246   1       2.925   180.   -.983872 1
GRID     21247   1       2.925   126.667-.627872 1
GRID     21248   1       2.925   133.334-.627869 1
GRID     21249   1       2.925   146.667-.627869 1
GRID     21250   1       2.925   153.334-.627872 1
GRID     21251   1       2.925   166.667-.627869 1
GRID     21252   1       2.925   173.334-.627872 1
GRID     21253   1       2.925   180.   -.627872 1
GRID     21254   1       2.925   126.667-.271872 1
GRID     21255   1       2.925   133.334-.271869 1
GRID     21256   1       2.925   146.667-.271869 1
GRID     21257   1       2.925   153.334-.271872 1
GRID     21258   1       2.925   166.667-.271869 1
GRID     21259   1       2.925   173.334-.271872 1
GRID     21260   1       2.925   180.   -.271872 1
GRID     21261   1       10.845  174.762-.255007 1
GRID     21262   1       10.845  174.762 .100993 1
GRID     21263   1       10.845  174.762 .456993 1
GRID     21264   1       10.845  174.762 .812993 1
GRID     21265   1       10.845  164.106-.255001 1
GRID     21266   1       10.845  164.106 .100999 1
GRID     21267   1       10.845  164.106 .456999 1
GRID     21268   1       10.845  164.106 .812999 1
GRID     21269   1       10.845  153.211-.255001 1
GRID     21270   1       10.845  153.211 .100999 1
GRID     21271   1       10.845  153.211 .456999 1
GRID     21272   1       10.845  153.211 .812999 1
GRID     21273   1       10.845  146.789-.255001 1
GRID     21274   1       10.845  146.789 .100999 1
GRID     21275   1       10.845  146.789 .456999 1
GRID     21276   1       10.845  146.789 .812999 1
GRID     21277   1       10.845  135.894-.255004 1
GRID     21278   1       10.845  135.894 .100996 1
GRID     21279   1       10.845  135.894 .456996 1
GRID     21280   1       10.845  135.894 .812996 1
GRID     21281   1       10.845  125.238-.255001 1
GRID     21282   1       10.845  125.238 .100999 1
GRID     21283   1       10.845  125.238 .456999 1
GRID     21284   1       10.845  125.238 .812999 1
GRID     21285   1       10.845  178.036-.255007 1
GRID     21286   1       10.845 -180.   -.255001 1
GRID     21287   1       10.845  176.508-.254995 1
GRID     21288   1       10.845  172.986-.255013 1
GRID     21289   1       10.845  171.21 -.25501  1
GRID     21290   1       10.845  169.434-.255007 1
GRID     21291   1       10.845  167.658-.254995 1
GRID     21292   1       10.845  165.882-.25501  1
GRID     21293   1       10.845  162.29 -.25501  1
GRID     21294   1       10.845  160.474-.255004 1
GRID     21295   1       10.845  158.658-.255007 1
GRID     21296   1       10.845  156.842-.255004 1
GRID     21297   1       10.845  155.027-.255001 1
GRID     21298   1       10.845  151.   -.255001 1
GRID     21299   1       10.845  149.   -.255004 1
GRID     21300   1       10.845  144.974-.255001 1
GRID     21301   1       10.845  143.158-.255004 1
GRID     21302   1       10.845  141.342-.255004 1
GRID     21303   1       10.845  139.526-.255001 1
GRID     21304   1       10.845  137.71 -.255004 1
GRID     21305   1       10.845  134.118-.255001 1
GRID     21306   1       10.845  132.342-.255004 1
GRID     21307   1       10.845  130.566-.255001 1
GRID     21308   1       10.845  128.79 -.255001 1
GRID     21309   1       10.845  127.014-.255004 1
GRID     21310   1       10.845  123.492-.255004 1
GRID     21311   1       10.845  121.964-.255004 1
GRID     21312   1       10.845  178.036 .100993 1
GRID     21313   1       10.845 -180.    .100999 1
GRID     21314   1       10.845  176.508 .101005 1
GRID     21315   1       10.845  172.986 .100987 1
GRID     21316   1       10.845  171.21  .10099  1
GRID     21317   1       10.845  169.434 .100993 1
GRID     21318   1       10.845  167.658 .101005 1
GRID     21319   1       10.845  165.882 .10099  1
GRID     21320   1       10.845  162.29  .10099  1
GRID     21321   1       10.845  160.474 .100996 1
GRID     21322   1       10.845  158.658 .100993 1
GRID     21323   1       10.845  156.842 .100996 1
GRID     21324   1       10.845  155.027 .100999 1
GRID     21325   1       10.845  151.    .100999 1
GRID     21326   1       10.845  149.    .100996 1
GRID     21327   1       10.845  144.974 .100999 1
GRID     21328   1       10.845  143.158 .100996 1
GRID     21329   1       10.845  141.342 .100996 1
GRID     21330   1       10.845  139.526 .100999 1
GRID     21331   1       10.845  137.71  .100996 1
GRID     21332   1       10.845  134.118 .100999 1
GRID     21333   1       10.845  132.342 .100996 1
GRID     21334   1       10.845  130.566 .100999 1
GRID     21335   1       10.845  128.79  .100999 1
GRID     21336   1       10.845  127.014 .100996 1
GRID     21337   1       10.845  123.492 .100996 1
GRID     21338   1       10.845  121.964 .100996 1
GRID     21339   1       10.845  178.036 .456993 1
GRID     21340   1       10.845 -180.    .456999 1
GRID     21341   1       10.845  176.508 .457005 1
GRID     21342   1       10.845  172.986 .456987 1
GRID     21343   1       10.845  171.21  .45699  1
GRID     21344   1       10.845  169.434 .456993 1
GRID     21345   1       10.845  167.658 .457005 1
GRID     21346   1       10.845  165.882 .45699  1
GRID     21347   1       10.845  162.29  .45699  1
GRID     21348   1       10.845  160.474 .456996 1
GRID     21349   1       10.845  158.658 .456993 1
GRID     21350   1       10.845  156.842 .456996 1
GRID     21351   1       10.845  155.027 .456999 1
GRID     21352   1       10.845  151.    .456999 1
GRID     21353   1       10.845  149.    .456996 1
GRID     21354   1       10.845  144.974 .456999 1
GRID     21355   1       10.845  143.158 .456996 1
GRID     21356   1       10.845  141.342 .456996 1
GRID     21357   1       10.845  139.526 .456999 1
GRID     21358   1       10.845  137.71  .456996 1
GRID     21359   1       10.845  134.118 .456999 1
GRID     21360   1       10.845  132.342 .456996 1
GRID     21361   1       10.845  130.566 .456999 1
GRID     21362   1       10.845  128.79  .456999 1
GRID     21363   1       10.845  127.014 .456996 1
GRID     21364   1       10.845  123.492 .456996 1
GRID     21365   1       10.845  121.964 .456996 1
GRID     21366   1       10.845  178.036 .812993 1
GRID     21367   1       10.845 -180.    .812999 1
GRID     21368   1       10.845  176.508 .813005 1
GRID     21369   1       10.845  172.986 .812987 1
GRID     21370   1       10.845  171.21  .81299  1
GRID     21371   1       10.845  169.434 .812993 1
GRID     21372   1       10.845  167.658 .813005 1
GRID     21373   1       10.845  165.882 .81299  1
GRID     21374   1       10.845  162.29  .81299  1
GRID     21375   1       10.845  160.474 .812996 1
GRID     21376   1       10.845  158.658 .812993 1
GRID     21377   1       10.845  156.842 .812996 1
GRID     21378   1       10.845  155.027 .812999 1
GRID     21379   1       10.845  151.    .812999 1
GRID     21380   1       10.845  149.    .812996 1
GRID     21381   1       10.845  144.974 .812999 1
GRID     21382   1       10.845  143.158 .812996 1
GRID     21383   1       10.845  141.342 .812996 1
GRID     21384   1       10.845  139.526 .812999 1
GRID     21385   1       10.845  137.71  .812996 1
GRID     21386   1       10.845  134.118 .812999 1
GRID     21387   1       10.845  132.342 .812996 1
GRID     21388   1       10.845  130.566 .812999 1
GRID     21389   1       10.845  128.79  .812999 1
GRID     21390   1       10.845  127.014 .812996 1
GRID     21391   1       10.845  123.492 .812996 1
GRID     21392   1       10.845  121.964 .812996 1
GRID     21393   1       4.57261-120.   -1.21815 1
GRID     21394   1       4.3945 -124.307-1.23391 1
GRID     21395   1       4.24321-128.948-1.24679 1
GRID     21396   1       4.1217 -133.898-1.25681 1
GRID     21397   1       3.75292-135.295-1.28543 1
GRID     21398   1       3.38686-136.996-1.31117 1
GRID     21399   1       5.71577-120.   -1.102   1
GRID     21400   1       3.38686-163.004-1.31117 1
GRID     21401   1       3.75292-164.705-1.28543 1
GRID     21402   1       4.1217 -166.102-1.25681 1
GRID     21403   1       4.24321-171.052-1.24679 1
GRID     21404   1       4.3945 -175.693-1.23391 1
GRID     21405   1       4.3945 -137.48 -1.23391 1
GRID     21406   1       4.68244-140.633-1.20813 1
GRID     21407   1       4.98289-143.413-1.17946 1
GRID     21408   1       4.95367-147.796-1.18233 1
GRID     21409   1       4.95367-152.204-1.18233 1
GRID     21411   1       4.68244-159.367-1.20813 1
GRID     21412   1       4.3945 -162.52 -1.23391 1
GRID     21413   1       5.91551-123.198-1.07902 1
GRID     21414   1       6.13244-126.178-1.05316 1
GRID     21415   1       6.36481-128.948-1.02441 1
GRID     21416   1       6.23808-132.216-1.04022 1
GRID     21417   1       6.13244-135.608-1.05316 1
GRID     21418   1       6.049  -139.107-1.06322 1
GRID     21419   1       5.69031-140.363-1.10487 1
GRID     21420   1       5.33472-141.787-1.14361 1
GRID     21421   1       8.00208-120.   -.790927 1
GRID     21422   1       7.81852-122.419-.819813 1
GRID     21423   1       7.64955-124.95 -.845793 1
GRID     21424   1       7.49616-127.589-.868876 1
GRID     21425   1       7.11862-127.994-.923654 1
GRID     21426   1       6.74148-128.445-.975496 1
GRID     21427   1       9.14523-120.   -.595532 1
GRID     21438   1       6.34196-141.361-1.02728 1
GRID     21439   1       6.64385-143.413-.988448 1
GRID     21440   1       6.95353-145.285-.946701 1
GRID     21441   1       6.93262-148.425-.949583 1
GRID     21446   1       7.73449-129.826-.832805 1
GRID     21447   1       7.98391-131.927-.793818 1
GRID     21448   1       8.2434 -133.898-.75191  1
GRID     21449   1       8.14594-136.474-.767811 1
GRID     21450   1       8.06533-139.107-.780814 1
GRID     21451   1       8.00207-141.787-.79093  1
GRID     21452   1       7.64955-142.846-.845793 1
GRID     21453   1       7.29989-144.007-.897714 1
GRID     21454   1       9.34158-122.024-.559263 1
GRID     21455   1       9.54912-123.963-.520061 1
GRID     21456   1       9.76711-125.818-.477926 1
GRID     21457   1       9.6173 -127.889-.506991 1
GRID     21458   1       9.48044-130.023-.533132 1
GRID     21459   1       9.35712-132.216-.556361 1
GRID     21460   1       8.98506-132.731-.624528 1
GRID     21461   1       8.61378-133.289-.689707 1
GRID     21462   1       10.5256-125.397-.323602 1
GRID     21463   1       10.1463-125.599-.402279 1
GRID     21477   1       8.30482-143.413-.741788 1
GRID     21478   1       8.61378-144.924-.689707 1
GRID     21479   1       8.92831-146.33 -.634671 1
GRID     21480   1       8.91204-148.775-.637571 1
GRID     21481   1       8.91204-151.225-.637571 1
GRID     21482   1       8.92831-153.671-.634671 1
GRID     21483   1       8.61378-155.076-.689707 1
GRID     21485   1       9.6173 -133.898-.506988 1
GRID     21486   1       9.88532-135.49 -.454661 1
GRID     21487   1       10.1606-136.996-.399367 1
GRID     21488   1       10.0817-139.107-.41538  1
GRID     21489   1       10.0167-141.248-.428477 1
GRID     21490   1       9.96578-143.413-.438663 1
GRID     21491   1       9.6173 -144.315-.506991 1
GRID     21492   1       9.27138-145.285-.572322 1
GRID     21493   1       10.5256-136.39 -.323602 1
GRID     21504   1       9.27138-154.715-.572322 1
GRID     21505   1       9.6173 -155.685-.506988 1
GRID     21506   1       9.96578-156.587-.438663 1
GRID     21507   1       10.0167-158.753-.428477 1
GRID     21512   1       10.2743-144.68 -.376068 1
GRID     21513   1       10.5875-145.872-.310477 1
GRID     21514   1       10.5875-154.128-.310477 1
GRID     21515   1       10.2743-155.32 -.376068 1
GRID     21517   1       10.5256-174.603-.323605 1
GRID     21519   1       4.57261-120.   -.862153 1
GRID     21520   1       4.3945 -124.307-.877907 1
GRID     21521   1       4.24321-128.948-.890793 1
GRID     21522   1       4.1217 -133.898-.900812 1
GRID     21523   1       3.75292-135.295-.929431 1
GRID     21524   1       3.38686-136.996-.955174 1
GRID     21525   1       5.71577-120.   -.745996 1
GRID     21526   1       3.38686-163.004-.955174 1
GRID     21527   1       3.75292-164.705-.929431 1
GRID     21528   1       4.1217 -166.102-.900812 1
GRID     21529   1       4.24321-171.052-.890793 1
GRID     21530   1       4.3945 -175.693-.877907 1
GRID     21531   1       4.3945 -137.48 -.877907 1
GRID     21532   1       4.68244-140.633-.852125 1
GRID     21533   1       4.98289-143.413-.823463 1
GRID     21534   1       4.95367-147.796-.826329 1
GRID     21535   1       4.95367-152.204-.826329 1
GRID     21537   1       4.68244-159.367-.852125 1
GRID     21538   1       4.3945 -162.52 -.877907 1
GRID     21539   1       5.91551-123.198-.723019 1
GRID     21540   1       6.13244-126.178-.697157 1
GRID     21541   1       6.36481-128.948-.668408 1
GRID     21542   1       6.23808-132.216-.684223 1
GRID     21543   1       6.13244-135.608-.697157 1
GRID     21544   1       6.049  -139.107-.707216 1
GRID     21545   1       5.69031-140.363-.748866 1
GRID     21546   1       5.33472-141.787-.787613 1
GRID     21547   1       8.00208-120.   -.434927 1
GRID     21548   1       7.81852-122.419-.463813 1
GRID     21549   1       7.64955-124.95 -.489793 1
GRID     21550   1       7.49616-127.589-.512876 1
GRID     21551   1       7.11862-127.994-.567654 1
GRID     21552   1       6.74148-128.445-.619496 1
GRID     21553   1       9.14523-120.   -.239532 1
GRID     21564   1       6.34196-141.361-.671283 1
GRID     21565   1       6.64385-143.413-.632448 1
GRID     21566   1       6.95353-145.285-.590701 1
GRID     21567   1       6.93262-148.425-.593583 1
GRID     21572   1       7.73449-129.826-.476805 1
GRID     21573   1       7.98391-131.927-.437818 1
GRID     21574   1       8.2434 -133.898-.39591  1
GRID     21575   1       8.14594-136.474-.41181  1
GRID     21576   1       8.06533-139.107-.424814 1
GRID     21577   1       8.00207-141.787-.43493  1
GRID     21578   1       7.64955-142.846-.489793 1
GRID     21579   1       7.29989-144.007-.541714 1
GRID     21580   1       9.34158-122.024-.203263 1
GRID     21581   1       9.54912-123.963-.164061 1
GRID     21582   1       9.76711-125.818-.121926 1
GRID     21583   1       9.6173 -127.889-.150991 1
GRID     21584   1       9.48044-130.023-.177132 1
GRID     21585   1       9.35712-132.216-.200361 1
GRID     21586   1       8.98506-132.731-.268527 1
GRID     21587   1       8.61378-133.289-.333707 1
GRID     21588   1       10.5256-125.397 .032398 1
GRID     21589   1       10.1463-125.599-.046279 1
GRID     21603   1       8.30482-143.413-.385788 1
GRID     21604   1       8.61378-144.924-.333707 1
GRID     21605   1       8.92831-146.33 -.278671 1
GRID     21606   1       8.91204-148.775-.281571 1
GRID     21607   1       8.91204-151.225-.281571 1
GRID     21608   1       8.92831-153.671-.278671 1
GRID     21609   1       8.61378-155.076-.333707 1
GRID     21611   1       9.6173 -133.898-.150988 1
GRID     21612   1       9.88532-135.49 -.098661 1
GRID     21613   1       10.1606-136.996-.043367 1
GRID     21614   1       10.0817-139.107-.05938  1
GRID     21615   1       10.0167-141.248-.072477 1
GRID     21616   1       9.96578-143.413-.082663 1
GRID     21617   1       9.6173 -144.315-.150991 1
GRID     21618   1       9.27138-145.285-.216322 1
GRID     21619   1       10.5256-136.39  .032398 1
GRID     21630   1       9.27138-154.715-.216322 1
GRID     21631   1       9.6173 -155.685-.150988 1
GRID     21632   1       9.96578-156.587-.082663 1
GRID     21633   1       10.0167-158.753-.072477 1
GRID     21638   1       10.2743-144.68 -.020068 1
GRID     21639   1       10.5875-145.872 .045523 1
GRID     21640   1       10.5875-154.128 .045523 1
GRID     21641   1       10.2743-155.32 -.020068 1
GRID     21643   1       10.5256-174.603 .032395 1
GRID     21645   1       4.57261-120.   -.506152 1
GRID     21646   1       4.3945 -124.307-.521907 1
GRID     21647   1       4.24321-128.948-.534793 1
GRID     21648   1       4.1217 -133.898-.544812 1
GRID     21649   1       3.75292-135.295-.573431 1
GRID     21650   1       3.38686-136.996-.599174 1
GRID     21651   1       5.71577-120.   -.389996 1
GRID     21652   1       3.38686-163.004-.599174 1
GRID     21653   1       3.75292-164.705-.573431 1
GRID     21654   1       4.1217 -166.102-.544812 1
GRID     21655   1       4.24321-171.052-.534793 1
GRID     21656   1       4.3945 -175.693-.521907 1
GRID     21657   1       4.3945 -137.48 -.521907 1
GRID     21658   1       4.68244-140.633-.496124 1
GRID     21659   1       4.98289-143.413-.467463 1
GRID     21660   1       4.95367-147.796-.470329 1
GRID     21661   1       4.95367-152.204-.470329 1
GRID     21663   1       4.68244-159.367-.496124 1
GRID     21664   1       4.3945 -162.52 -.521907 1
GRID     21665   1       5.91551-123.198-.367019 1
GRID     21666   1       6.13244-126.178-.341157 1
GRID     21667   1       6.36481-128.948-.312408 1
GRID     21668   1       6.23808-132.216-.328223 1
GRID     21669   1       6.13244-135.608-.341157 1
GRID     21670   1       6.049  -139.107-.351216 1
GRID     21671   1       5.69031-140.363-.392865 1
GRID     21672   1       5.33472-141.787-.431613 1
GRID     21673   1       8.00208-120.   -.078927 1
GRID     21674   1       7.81852-122.419-.107813 1
GRID     21675   1       7.64955-124.95 -.133793 1
GRID     21676   1       7.49616-127.589-.156876 1
GRID     21677   1       7.11862-127.994-.211654 1
GRID     21678   1       6.74148-128.445-.263496 1
GRID     21679   1       9.14523-120.    .116468 1
GRID     21690   1       6.34196-141.361-.315283 1
GRID     21691   1       6.64385-143.413-.276448 1
GRID     21692   1       6.95353-145.285-.234701 1
GRID     21693   1       6.93262-148.425-.237583 1
GRID     21698   1       7.73449-129.826-.120804 1
GRID     21699   1       7.98391-131.927-.081818 1
GRID     21700   1       8.2434 -133.898-.03991  1
GRID     21701   1       8.14594-136.474-.05581  1
GRID     21702   1       8.06533-139.107-.068814 1
GRID     21703   1       8.00207-141.787-.07893  1
GRID     21704   1       7.64955-142.846-.133793 1
GRID     21705   1       7.29989-144.007-.185714 1
GRID     21706   1       9.34158-122.024 .152737 1
GRID     21707   1       9.54912-123.963 .191939 1
GRID     21708   1       9.76711-125.818 .234074 1
GRID     21709   1       9.6173 -127.889 .205009 1
GRID     21710   1       9.48044-130.023 .178869 1
GRID     21711   1       9.35712-132.216 .15564  1
GRID     21712   1       8.98506-132.731 .087473 1
GRID     21713   1       8.61378-133.289 .022294 1
GRID     21714   1       10.5256-125.397 .388398 1
GRID     21715   1       10.1463-125.599 .309721 1
GRID     21729   1       8.30482-143.413-.029788 1
GRID     21730   1       8.61378-144.924 .022294 1
GRID     21731   1       8.92831-146.33  .077329 1
GRID     21732   1       8.91204-148.775 .07443  1
GRID     21733   1       8.91204-151.225 .07443  1
GRID     21734   1       8.92831-153.671 .077329 1
GRID     21735   1       8.61378-155.076 .022294 1
GRID     21737   1       9.6173 -133.898 .205012 1
GRID     21738   1       9.88532-135.49  .257339 1
GRID     21739   1       10.1606-136.996 .312633 1
GRID     21740   1       10.0817-139.107 .29662  1
GRID     21741   1       10.0167-141.248 .283523 1
GRID     21742   1       9.96578-143.413 .273337 1
GRID     21743   1       9.6173 -144.315 .205009 1
GRID     21744   1       9.27138-145.285 .139679 1
GRID     21745   1       10.5256-136.39  .388398 1
GRID     21756   1       9.27138-154.715 .139679 1
GRID     21757   1       9.6173 -155.685 .205012 1
GRID     21758   1       9.96578-156.587 .273337 1
GRID     21759   1       10.0167-158.753 .283523 1
GRID     21764   1       10.2743-144.68  .335932 1
GRID     21765   1       10.5875-145.872 .401523 1
GRID     21766   1       10.5875-154.128 .401523 1
GRID     21767   1       10.2743-155.32  .335932 1
GRID     21769   1       10.5256-174.603 .388395 1
GRID     21771   1       4.57261-120.   -.150152 1
GRID     21772   1       4.3945 -124.307-.165907 1
GRID     21773   1       4.24321-128.948-.178793 1
GRID     21774   1       4.1217 -133.898-.188812 1
GRID     21775   1       3.75292-135.295-.217431 1
GRID     21776   1       3.38686-136.996-.243174 1
GRID     21777   1       5.71577-120.   -.033996 1
GRID     21778   1       3.38686-163.004-.243174 1
GRID     21779   1       3.75292-164.705-.217431 1
GRID     21780   1       4.1217 -166.102-.188812 1
GRID     21781   1       4.24321-171.052-.178793 1
GRID     21782   1       4.3945 -175.693-.165907 1
GRID     21783   1       4.3945 -137.48 -.165907 1
GRID     21784   1       4.68244-140.633-.140124 1
GRID     21785   1       4.98289-143.413-.111463 1
GRID     21786   1       4.95367-147.796-.114329 1
GRID     21787   1       4.95367-152.204-.114329 1
GRID     21789   1       4.68244-159.367-.140124 1
GRID     21790   1       4.3945 -162.52 -.165907 1
GRID     21791   1       5.91551-123.198-.011019 1
GRID     21792   1       6.13244-126.178 .014843 1
GRID     21793   1       6.36481-128.948 .043592 1
GRID     21794   1       6.23808-132.216 .027777 1
GRID     21795   1       6.13244-135.608 .014843 1
GRID     21796   1       6.049  -139.107 .004784 1
GRID     21797   1       5.69031-140.363-.036866 1
GRID     21798   1       5.33472-141.787-.075613 1
GRID     21799   1       8.00208-120.    .277073 1
GRID     21800   1       7.81852-122.419 .248187 1
GRID     21801   1       7.64955-124.95  .222207 1
GRID     21802   1       7.49616-127.589 .199124 1
GRID     21803   1       7.11862-127.994 .144346 1
GRID     21804   1       6.74148-128.445 .092504 1
GRID     21805   1       9.14523-120.    .472468 1
GRID     21816   1       6.34196-141.361 .040717 1
GRID     21817   1       6.64385-143.413 .079552 1
GRID     21818   1       6.95353-145.285 .121299 1
GRID     21819   1       6.93262-148.425 .118417 1
GRID     21824   1       7.73449-129.826 .235196 1
GRID     21825   1       7.98391-131.927 .274182 1
GRID     21826   1       8.2434 -133.898 .31609  1
GRID     21827   1       8.14594-136.474 .30019  1
GRID     21828   1       8.06533-139.107 .287186 1
GRID     21829   1       8.00207-141.787 .27707  1
GRID     21830   1       7.64955-142.846 .222207 1
GRID     21831   1       7.29989-144.007 .170286 1
GRID     21832   1       9.34158-122.024 .508737 1
GRID     21833   1       9.54912-123.963 .547939 1
GRID     21834   1       9.76711-125.818 .590074 1
GRID     21835   1       9.6173 -127.889 .561009 1
GRID     21836   1       9.48044-130.023 .534868 1
GRID     21837   1       9.35712-132.216 .51164  1
GRID     21838   1       8.98506-132.731 .443473 1
GRID     21839   1       8.61378-133.289 .378294 1
GRID     21840   1       10.5256-125.397 .744398 1
GRID     21841   1       10.1463-125.599 .665721 1
GRID     21855   1       8.30482-143.413 .326212 1
GRID     21856   1       8.61378-144.924 .378294 1
GRID     21857   1       8.92831-146.33  .433329 1
GRID     21858   1       8.91204-148.775 .43043  1
GRID     21859   1       8.91204-151.225 .43043  1
GRID     21860   1       8.92831-153.671 .433329 1
GRID     21861   1       8.61378-155.076 .378294 1
GRID     21863   1       9.6173 -133.898 .561012 1
GRID     21864   1       9.88532-135.49  .613339 1
GRID     21865   1       10.1606-136.996 .668633 1
GRID     21866   1       10.0817-139.107 .65262  1
GRID     21867   1       10.0167-141.248 .639523 1
GRID     21868   1       9.96578-143.413 .629337 1
GRID     21869   1       9.6173 -144.315 .561009 1
GRID     21870   1       9.27138-145.285 .495678 1
GRID     21871   1       10.5256-136.39  .744398 1
GRID     21882   1       9.27138-154.715 .495678 1
GRID     21883   1       9.6173 -155.685 .561012 1
GRID     21884   1       9.96578-156.587 .629337 1
GRID     21885   1       10.0167-158.753 .639523 1
GRID     21890   1       10.2743-144.68  .691932 1
GRID     21891   1       10.5875-145.872 .757523 1
GRID     21892   1       10.5875-154.128 .757523 1
GRID     21893   1       10.2743-155.32  .691932 1
GRID     21895   1       10.5256-174.603 .744395 1
GRID     21897   1       2.925  -140.   -1.33987 1
GRID     21898   1       2.925  -140.   -.983872 1
GRID     21899   1       2.925  -140.   -.627872 1
GRID     21900   1       2.925  -140.   -.271872 1
GRID     21901   1       2.925  -160.   -1.33987 1
GRID     21902   1       2.925  -160.   -.983872 1
GRID     21903   1       2.925  -160.   -.627872 1
GRID     21904   1       2.925  -160.   -.271872 1
GRID     21905   1       2.925  -173.333-1.33987 1
GRID     21906   1       2.925  -166.666-1.33987 1
GRID     21907   1       2.925  -153.333-1.33987 1
GRID     21908   1       2.925  -146.666-1.33987 1
GRID     21909   1       2.925  -133.333-1.33987 1
GRID     21910   1       2.925  -126.666-1.33987 1
GRID     21911   1       2.925  -120.   -1.33987 1
GRID     21912   1       2.925  -173.333-.983872 1
GRID     21913   1       2.925  -166.666-.983872 1
GRID     21914   1       2.925  -153.333-.983872 1
GRID     21915   1       2.925  -146.666-.983872 1
GRID     21916   1       2.925  -133.333-.983872 1
GRID     21917   1       2.925  -126.666-.983869 1
GRID     21918   1       2.925  -120.   -.983872 1
GRID     21919   1       2.925  -173.333-.627872 1
GRID     21920   1       2.925  -166.666-.627872 1
GRID     21921   1       2.925  -153.333-.627872 1
GRID     21922   1       2.925  -146.666-.627872 1
GRID     21923   1       2.925  -133.333-.627872 1
GRID     21924   1       2.925  -126.666-.627869 1
GRID     21925   1       2.925  -120.   -.627872 1
GRID     21926   1       2.925  -173.333-.271872 1
GRID     21927   1       2.925  -166.666-.271872 1
GRID     21928   1       2.925  -153.333-.271872 1
GRID     21929   1       2.925  -146.666-.271872 1
GRID     21930   1       2.925  -133.333-.271872 1
GRID     21931   1       2.925  -126.666-.271869 1
GRID     21932   1       2.925  -120.   -.271872 1
GRID     21933   1       10.845 -125.238-.255004 1
GRID     21934   1       10.845 -125.238 .100996 1
GRID     21935   1       10.845 -125.238 .456996 1
GRID     21936   1       10.845 -125.238 .812996 1
GRID     21937   1       10.845 -135.894-.255001 1
GRID     21938   1       10.845 -135.894 .100999 1
GRID     21939   1       10.845 -135.894 .456999 1
GRID     21940   1       10.845 -135.894 .812999 1
GRID     21941   1       10.845 -146.789-.255001 1
GRID     21942   1       10.845 -146.789 .100999 1
GRID     21943   1       10.845 -146.789 .456999 1
GRID     21944   1       10.845 -146.789 .812999 1
GRID     21945   1       10.845 -153.211-.255001 1
GRID     21946   1       10.845 -153.211 .100999 1
GRID     21947   1       10.845 -153.211 .456999 1
GRID     21948   1       10.845 -153.211 .812999 1
GRID     21949   1       10.845 -164.106-.255001 1
GRID     21950   1       10.845 -164.106 .100999 1
GRID     21951   1       10.845 -164.106 .456999 1
GRID     21952   1       10.845 -164.106 .812999 1
GRID     21953   1       10.845 -174.762-.255007 1
GRID     21954   1       10.845 -174.762 .100993 1
GRID     21955   1       10.845 -174.762 .456993 1
GRID     21956   1       10.845 -174.762 .812993 1
GRID     21957   1       10.845 -121.964-.255004 1
GRID     21958   1       10.845 -120.   -.255001 1
GRID     21959   1       10.845 -123.492-.255001 1
GRID     21960   1       10.845 -127.014-.255001 1
GRID     21961   1       10.845 -128.79 -.255001 1
GRID     21962   1       10.845 -130.566-.255001 1
GRID     21963   1       10.845 -132.342-.255004 1
GRID     21964   1       10.845 -134.118-.255004 1
GRID     21965   1       10.845 -137.71 -.255001 1
GRID     21966   1       10.845 -139.526-.255004 1
GRID     21967   1       10.845 -141.342-.255004 1
GRID     21968   1       10.845 -143.158-.255004 1
GRID     21969   1       10.845 -144.974-.255001 1
GRID     21970   1       10.845 -149.   -.255004 1
GRID     21971   1       10.845 -151.   -.255001 1
GRID     21972   1       10.845 -155.027-.255001 1
GRID     21973   1       10.845 -156.842-.255001 1
GRID     21974   1       10.845 -158.658-.255007 1
GRID     21975   1       10.845 -160.474-.255004 1
GRID     21977   1       10.845 -165.882-.25501  1
GRID     21978   1       10.845 -167.658-.254995 1
GRID     21979   1       10.845 -169.434-.255007 1
GRID     21980   1       10.845 -171.21 -.25501  1
GRID     21981   1       10.845 -172.986-.255013 1
GRID     21982   1       10.845 -176.508-.254995 1
GRID     21983   1       10.845 -178.036-.255007 1
GRID     21984   1       10.845 -121.964 .100996 1
GRID     21985   1       10.845 -120.    .100999 1
GRID     21986   1       10.845 -123.492 .100999 1
GRID     21987   1       10.845 -127.014 .100999 1
GRID     21988   1       10.845 -128.79  .100999 1
GRID     21989   1       10.845 -130.566 .100999 1
GRID     21990   1       10.845 -132.342 .100996 1
GRID     21991   1       10.845 -134.118 .100996 1
GRID     21992   1       10.845 -137.71  .100999 1
GRID     21993   1       10.845 -139.526 .100996 1
GRID     21994   1       10.845 -141.342 .100996 1
GRID     21995   1       10.845 -143.158 .100996 1
GRID     21996   1       10.845 -144.974 .100999 1
GRID     21997   1       10.845 -149.    .100996 1
GRID     21998   1       10.845 -151.    .100999 1
GRID     21999   1       10.845 -155.027 .100999 1
GRID     22000   1       10.845 -156.842 .100999 1
GRID     22001   1       10.845 -158.658 .100993 1
GRID     22002   1       10.845 -160.474 .100996 1
GRID     22004   1       10.845 -165.882 .10099  1
GRID     22005   1       10.845 -167.658 .101005 1
GRID     22006   1       10.845 -169.434 .100993 1
GRID     22007   1       10.845 -171.21  .10099  1
GRID     22008   1       10.845 -172.986 .100987 1
GRID     22009   1       10.845 -176.508 .101005 1
GRID     22010   1       10.845 -178.036 .100993 1
GRID     22011   1       10.845 -121.964 .456996 1
GRID     22012   1       10.845 -120.    .456999 1
GRID     22013   1       10.845 -123.492 .456999 1
GRID     22014   1       10.845 -127.014 .456999 1
GRID     22015   1       10.845 -128.79  .456999 1
GRID     22016   1       10.845 -130.566 .456999 1
GRID     22017   1       10.845 -132.342 .456996 1
GRID     22018   1       10.845 -134.118 .456996 1
GRID     22019   1       10.845 -137.71  .456999 1
GRID     22020   1       10.845 -139.526 .456996 1
GRID     22021   1       10.845 -141.342 .456996 1
GRID     22022   1       10.845 -143.158 .456996 1
GRID     22023   1       10.845 -144.974 .456999 1
GRID     22024   1       10.845 -149.    .456996 1
GRID     22025   1       10.845 -151.    .456999 1
GRID     22026   1       10.845 -155.027 .456999 1
GRID     22027   1       10.845 -156.842 .456999 1
GRID     22028   1       10.845 -158.658 .456993 1
GRID     22029   1       10.845 -160.474 .456996 1
GRID     22031   1       10.845 -165.882 .45699  1
GRID     22032   1       10.845 -167.658 .457005 1
GRID     22033   1       10.845 -169.434 .456993 1
GRID     22034   1       10.845 -171.21  .45699  1
GRID     22035   1       10.845 -172.986 .456987 1
GRID     22036   1       10.845 -176.508 .457005 1
GRID     22037   1       10.845 -178.036 .456993 1
GRID     22038   1       10.845 -121.964 .812996 1
GRID     22039   1       10.845 -120.    .812999 1
GRID     22040   1       10.845 -123.492 .812999 1
GRID     22041   1       10.845 -127.014 .812999 1
GRID     22042   1       10.845 -128.79  .812999 1
GRID     22043   1       10.845 -130.566 .812999 1
GRID     22044   1       10.845 -132.342 .812996 1
GRID     22045   1       10.845 -134.118 .812996 1
GRID     22046   1       10.845 -137.71  .812999 1
GRID     22047   1       10.845 -139.526 .812996 1
GRID     22048   1       10.845 -141.342 .812996 1
GRID     22049   1       10.845 -143.158 .812996 1
GRID     22050   1       10.845 -144.974 .812999 1
GRID     22051   1       10.845 -149.    .812996 1
GRID     22052   1       10.845 -151.    .812999 1
GRID     22053   1       10.845 -155.027 .812999 1
GRID     22054   1       10.845 -156.842 .812999 1
GRID     22055   1       10.845 -158.658 .812993 1
GRID     22056   1       10.845 -160.474 .812996 1
GRID     22058   1       10.845 -165.882 .81299  1
GRID     22059   1       10.845 -167.658 .813005 1
GRID     22060   1       10.845 -169.434 .812993 1
GRID     22061   1       10.845 -171.21  .81299  1
GRID     22062   1       10.845 -172.986 .812987 1
GRID     22063   1       10.845 -176.508 .813005 1
GRID     22064   1       10.845 -178.036 .812993 1
GRID     22066   1       4.3945 -64.3066-1.23391 1
GRID     22067   1       4.24321-68.9483-1.24679 1
GRID     22068   1       4.1217 -73.8979-1.25681 1
GRID     22069   1       3.75292-75.2953-1.28543 1
GRID     22070   1       3.38686-76.9961-1.31117 1
GRID     22072   1       3.38686-103.004-1.31117 1
GRID     22073   1       3.75292-104.705-1.28543 1
GRID     22074   1       4.1217 -106.102-1.25681 1
GRID     22075   1       4.24321-111.052-1.24679 1
GRID     22076   1       4.3945 -115.693-1.23391 1
GRID     22077   1       4.3945 -77.4802-1.23391 1
GRID     22078   1       4.68244-80.633 -1.20813 1
GRID     22079   1       4.98289-83.4132-1.17946 1
GRID     22080   1       4.95367-87.7958-1.18233 1
GRID     22081   1       4.95367-92.2042-1.18233 1
GRID     22082   1       4.98289-96.5868-1.17946 1
GRID     22083   1       4.68244-99.367 -1.20813 1
GRID     22084   1       4.3945 -102.52 -1.23391 1
GRID     22088   1       6.23808-72.2164-1.04022 1
GRID     22089   1       6.13244-75.6084-1.05316 1
GRID     22090   1       6.049  -79.1066-1.06322 1
GRID     22091   1       5.69031-80.3626-1.10487 1
GRID     22092   1       5.33472-81.7868-1.14361 1
GRID     22100   1       5.33472-98.2132-1.14361 1
GRID     22101   1       5.69031-99.6374-1.10487 1
GRID     22102   1       6.049  -100.893-1.06322 1
GRID     22103   1       6.13244-104.392-1.05316 1
GRID     22104   1       6.23808-107.784-1.04022 1
GRID     22105   1       6.36481-111.052-1.02441 1
GRID     22106   1       6.13244-113.822-1.05316 1
GRID     22107   1       5.91551-116.802-1.07902 1
GRID     22108   1       5.33472-120.   -1.14361 1
GRID     22109   1       4.95367-120.   -1.18233 1
GRID     22110   1       6.34196-81.3609-1.02728 1
GRID     22111   1       6.64385-83.4132-.988448 1
GRID     22112   1       6.95353-85.285 -.946701 1
GRID     22113   1       6.93262-88.4252-.949583 1
GRID     22114   1       6.93262-91.5748-.949583 1
GRID     22115   1       6.95353-94.715 -.946701 1
GRID     22116   1       6.64385-96.5868-.988448 1
GRID     22117   1       6.34196-98.6391-1.02728 1
GRID     22121   1       8.14594-76.4738-.767811 1
GRID     22122   1       8.06533-79.1066-.780817 1
GRID     22123   1       8.00207-81.7868-.79093  1
GRID     22124   1       7.64955-82.8462-.845793 1
GRID     22125   1       7.29989-84.0075-.897714 1
GRID     22128   1       9.76711-65.8175-.477926 1
GRID     22131   1       9.35712-72.2164-.556361 1
GRID     22134   1       10.5256-65.397 -.323602 1
GRID     22135   1       10.1463-65.5994-.402279 1
GRID     22136   1       6.74148-111.556-.975496 1
GRID     22137   1       7.11862-112.006-.923654 1
GRID     22138   1       7.49616-112.411-.868876 1
GRID     22139   1       7.64955-115.05 -.845793 1
GRID     22140   1       7.81852-117.581-.819813 1
GRID     22141   1       7.29989-95.9926-.897714 1
GRID     22142   1       7.64955-97.1538-.845793 1
GRID     22143   1       8.00207-98.2132-.79093  1
GRID     22144   1       8.06533-100.893-.780817 1
GRID     22145   1       8.14594-103.526-.767811 1
GRID     22146   1       8.2434 -106.102-.75191  1
GRID     22147   1       7.98391-108.073-.793818 1
GRID     22148   1       7.73449-110.174-.832805 1
GRID     22149   1       8.30482-83.4132-.741788 1
GRID     22150   1       8.61378-84.9241-.689707 1
GRID     22151   1       8.92831-86.3295-.634671 1
GRID     22152   1       8.91204-88.775 -.637571 1
GRID     22153   1       8.91204-91.225 -.637571 1
GRID     22154   1       8.92831-93.6705-.634671 1
GRID     22155   1       8.61378-95.0759-.689707 1
GRID     22156   1       8.30482-96.5868-.741788 1
GRID     22157   1       9.6173 -73.8979-.506991 1
GRID     22158   1       9.88532-75.4895-.454661 1
GRID     22159   1       10.1606-76.9961-.399367 1
GRID     22160   1       10.0817-79.1066-.41538  1
GRID     22161   1       10.0167-81.2475-.428477 1
GRID     22162   1       9.96578-83.4132-.438663 1
GRID     22163   1       9.6173 -84.3153-.506991 1
GRID     22164   1       9.27138-85.285 -.572322 1
GRID     22165   1       10.5256-76.3898-.323602 1
GRID     22166   1       8.61378-106.711-.689707 1
GRID     22167   1       8.98505-107.27 -.624528 1
GRID     22168   1       9.35712-107.784-.556361 1
GRID     22169   1       9.48044-109.977-.533135 1
GRID     22170   1       9.6173 -112.111-.506991 1
GRID     22171   1       9.76711-114.183-.477926 1
GRID     22172   1       9.54912-116.037-.520064 1
GRID     22173   1       9.34158-117.976-.559263 1
GRID     22174   1       8.76418-120.   -.663645 1
GRID     22175   1       8.38313-120.   -.728775 1
GRID     22176   1       9.27138-94.715 -.572322 1
GRID     22177   1       9.6173 -95.6847-.506991 1
GRID     22178   1       9.96578-96.5868-.438663 1
GRID     22179   1       10.0167-98.7525-.428477 1
GRID     22180   1       10.0817-100.893-.41538  1
GRID     22181   1       10.1606-103.004-.399367 1
GRID     22182   1       9.88532-104.511-.454661 1
GRID     22183   1       9.6173 -106.102-.506991 1
GRID     22184   1       10.2743-84.6799-.376068 1
GRID     22185   1       10.5875-85.8722-.310477 1
GRID     22186   1       10.5875-94.1278-.310477 1
GRID     22187   1       10.2743-95.3201-.376068 1
GRID     22188   1       10.1463-114.401-.402279 1
GRID     22189   1       10.5256-114.603-.323602 1
GRID     22190   1       10.5256-103.61 -.323602 1
GRID     22192   1       4.3945 -64.3066-.877907 1
GRID     22193   1       4.24321-68.9483-.890793 1
GRID     22194   1       4.1217 -73.8979-.900812 1
GRID     22195   1       3.75292-75.2953-.929431 1
GRID     22196   1       3.38686-76.9961-.955174 1
GRID     22198   1       3.38686-103.004-.955174 1
GRID     22199   1       3.75292-104.705-.929431 1
GRID     22200   1       4.1217 -106.102-.900812 1
GRID     22201   1       4.24321-111.052-.890793 1
GRID     22202   1       4.3945 -115.693-.877907 1
GRID     22203   1       4.3945 -77.4802-.877907 1
GRID     22204   1       4.68244-80.633 -.852125 1
GRID     22205   1       4.98289-83.4132-.823463 1
GRID     22206   1       4.95367-87.7958-.826329 1
GRID     22207   1       4.95367-92.2042-.826329 1
GRID     22208   1       4.98289-96.5868-.823463 1
GRID     22209   1       4.68244-99.367 -.852125 1
GRID     22210   1       4.3945 -102.52 -.877907 1
GRID     22214   1       6.23808-72.2164-.684223 1
GRID     22215   1       6.13244-75.6084-.697157 1
GRID     22216   1       6.049  -79.1066-.707216 1
GRID     22217   1       5.69031-80.3626-.748866 1
GRID     22218   1       5.33472-81.7868-.787613 1
GRID     22226   1       5.33472-98.2132-.787613 1
GRID     22227   1       5.69031-99.6374-.748866 1
GRID     22228   1       6.049  -100.893-.707216 1
GRID     22229   1       6.13244-104.392-.697157 1
GRID     22230   1       6.23808-107.784-.684223 1
GRID     22231   1       6.36481-111.052-.668408 1
GRID     22232   1       6.13244-113.822-.697157 1
GRID     22233   1       5.91551-116.802-.723019 1
GRID     22234   1       5.33472-120.   -.787613 1
GRID     22235   1       4.95367-120.   -.826329 1
GRID     22236   1       6.34196-81.3609-.671283 1
GRID     22237   1       6.64385-83.4132-.632448 1
GRID     22238   1       6.95353-85.285 -.590701 1
GRID     22239   1       6.93262-88.4252-.593583 1
GRID     22240   1       6.93262-91.5748-.593583 1
GRID     22241   1       6.95353-94.715 -.590701 1
GRID     22242   1       6.64385-96.5868-.632448 1
GRID     22243   1       6.34196-98.6391-.671283 1
GRID     22247   1       8.14594-76.4738-.41181  1
GRID     22248   1       8.06533-79.1066-.424817 1
GRID     22249   1       8.00207-81.7868-.43493  1
GRID     22250   1       7.64955-82.8462-.489793 1
GRID     22251   1       7.29989-84.0075-.541714 1
GRID     22254   1       9.76711-65.8175-.121926 1
GRID     22257   1       9.35712-72.2164-.200361 1
GRID     22260   1       10.5256-65.397  .032398 1
GRID     22261   1       10.1463-65.5994-.046279 1
GRID     22262   1       6.74148-111.556-.619496 1
GRID     22263   1       7.11862-112.006-.567654 1
GRID     22264   1       7.49616-112.411-.512876 1
GRID     22265   1       7.64955-115.05 -.489793 1
GRID     22266   1       7.81852-117.581-.463813 1
GRID     22267   1       7.29989-95.9926-.541714 1
GRID     22268   1       7.64955-97.1538-.489793 1
GRID     22269   1       8.00207-98.2132-.43493  1
GRID     22270   1       8.06533-100.893-.424817 1
GRID     22271   1       8.14594-103.526-.41181  1
GRID     22272   1       8.2434 -106.102-.39591  1
GRID     22273   1       7.98391-108.073-.437818 1
GRID     22274   1       7.73449-110.174-.476805 1
GRID     22275   1       8.30482-83.4132-.385788 1
GRID     22276   1       8.61378-84.9241-.333707 1
GRID     22277   1       8.92831-86.3295-.278671 1
GRID     22278   1       8.91204-88.775 -.281571 1
GRID     22279   1       8.91204-91.225 -.281571 1
GRID     22280   1       8.92831-93.6705-.278671 1
GRID     22281   1       8.61378-95.0759-.333707 1
GRID     22282   1       8.30482-96.5868-.385788 1
GRID     22283   1       9.6173 -73.8979-.150991 1
GRID     22284   1       9.88532-75.4895-.098661 1
GRID     22285   1       10.1606-76.9961-.043367 1
GRID     22286   1       10.0817-79.1066-.05938  1
GRID     22287   1       10.0167-81.2475-.072477 1
GRID     22288   1       9.96578-83.4132-.082663 1
GRID     22289   1       9.6173 -84.3153-.150991 1
GRID     22290   1       9.27138-85.285 -.216322 1
GRID     22291   1       10.5256-76.3898 .032398 1
GRID     22292   1       8.61378-106.711-.333707 1
GRID     22293   1       8.98505-107.27 -.268527 1
GRID     22294   1       9.35712-107.784-.200361 1
GRID     22295   1       9.48044-109.977-.177135 1
GRID     22296   1       9.6173 -112.111-.150991 1
GRID     22297   1       9.76711-114.183-.121926 1
GRID     22298   1       9.54912-116.037-.164064 1
GRID     22299   1       9.34158-117.976-.203263 1
GRID     22300   1       8.76418-120.   -.307645 1
GRID     22301   1       8.38313-120.   -.372775 1
GRID     22302   1       9.27138-94.715 -.216322 1
GRID     22303   1       9.6173 -95.6847-.150991 1
GRID     22304   1       9.96578-96.5868-.082663 1
GRID     22305   1       10.0167-98.7525-.072477 1
GRID     22306   1       10.0817-100.893-.05938  1
GRID     22307   1       10.1606-103.004-.043367 1
GRID     22308   1       9.88532-104.511-.098661 1
GRID     22309   1       9.6173 -106.102-.150991 1
GRID     22310   1       10.2743-84.6799-.020068 1
GRID     22311   1       10.5875-85.8722 .045523 1
GRID     22312   1       10.5875-94.1278 .045523 1
GRID     22313   1       10.2743-95.3201-.020068 1
GRID     22314   1       10.1463-114.401-.046279 1
GRID     22315   1       10.5256-114.603 .032398 1
GRID     22316   1       10.5256-103.61  .032398 1
GRID     22318   1       4.3945 -64.3066-.521907 1
GRID     22319   1       4.24321-68.9483-.534793 1
GRID     22320   1       4.1217 -73.8979-.544812 1
GRID     22321   1       3.75292-75.2953-.573431 1
GRID     22322   1       3.38686-76.9961-.599174 1
GRID     22324   1       3.38686-103.004-.599174 1
GRID     22325   1       3.75292-104.705-.573431 1
GRID     22326   1       4.1217 -106.102-.544812 1
GRID     22327   1       4.24321-111.052-.534793 1
GRID     22328   1       4.3945 -115.693-.521907 1
GRID     22329   1       4.3945 -77.4802-.521907 1
GRID     22330   1       4.68244-80.633 -.496124 1
GRID     22331   1       4.98289-83.4132-.467463 1
GRID     22332   1       4.95367-87.7958-.470329 1
GRID     22333   1       4.95367-92.2042-.470329 1
GRID     22334   1       4.98289-96.5868-.467463 1
GRID     22335   1       4.68244-99.367 -.496124 1
GRID     22336   1       4.3945 -102.52 -.521907 1
GRID     22340   1       6.23808-72.2164-.328223 1
GRID     22341   1       6.13244-75.6084-.341157 1
GRID     22342   1       6.049  -79.1066-.351216 1
GRID     22343   1       5.69031-80.3626-.392865 1
GRID     22344   1       5.33472-81.7868-.431613 1
GRID     22352   1       5.33472-98.2132-.431613 1
GRID     22353   1       5.69031-99.6374-.392865 1
GRID     22354   1       6.049  -100.893-.351216 1
GRID     22355   1       6.13244-104.392-.341157 1
GRID     22356   1       6.23808-107.784-.328223 1
GRID     22357   1       6.36481-111.052-.312408 1
GRID     22358   1       6.13244-113.822-.341157 1
GRID     22359   1       5.91551-116.802-.367019 1
GRID     22360   1       5.33472-120.   -.431613 1
GRID     22361   1       4.95367-120.   -.470329 1
GRID     22362   1       6.34196-81.3609-.315283 1
GRID     22363   1       6.64385-83.4132-.276448 1
GRID     22364   1       6.95353-85.285 -.234701 1
GRID     22365   1       6.93262-88.4252-.237583 1
GRID     22366   1       6.93262-91.5748-.237583 1
GRID     22367   1       6.95353-94.715 -.234701 1
GRID     22368   1       6.64385-96.5868-.276448 1
GRID     22369   1       6.34196-98.6391-.315283 1
GRID     22373   1       8.14594-76.4738-.05581  1
GRID     22374   1       8.06533-79.1066-.068817 1
GRID     22375   1       8.00207-81.7868-.07893  1
GRID     22376   1       7.64955-82.8462-.133793 1
GRID     22377   1       7.29989-84.0075-.185714 1
GRID     22380   1       9.76711-65.8175 .234074 1
GRID     22383   1       9.35712-72.2164 .15564  1
GRID     22386   1       10.5256-65.397  .388398 1
GRID     22387   1       10.1463-65.5994 .309721 1
GRID     22388   1       6.74148-111.556-.263496 1
GRID     22389   1       7.11862-112.006-.211654 1
GRID     22390   1       7.49616-112.411-.156876 1
GRID     22391   1       7.64955-115.05 -.133793 1
GRID     22392   1       7.81852-117.581-.107813 1
GRID     22393   1       7.29989-95.9926-.185714 1
GRID     22394   1       7.64955-97.1538-.133793 1
GRID     22395   1       8.00207-98.2132-.07893  1
GRID     22396   1       8.06533-100.893-.068817 1
GRID     22397   1       8.14594-103.526-.05581  1
GRID     22398   1       8.2434 -106.102-.03991  1
GRID     22399   1       7.98391-108.073-.081818 1
GRID     22400   1       7.73449-110.174-.120804 1
GRID     22401   1       8.30482-83.4132-.029788 1
GRID     22402   1       8.61378-84.9241 .022294 1
GRID     22403   1       8.92831-86.3295 .077329 1
GRID     22404   1       8.91204-88.775  .07443  1
GRID     22405   1       8.91204-91.225  .07443  1
GRID     22406   1       8.92831-93.6705 .077329 1
GRID     22407   1       8.61378-95.0759 .022294 1
GRID     22408   1       8.30482-96.5868-.029788 1
GRID     22409   1       9.6173 -73.8979 .205009 1
GRID     22410   1       9.88532-75.4895 .257339 1
GRID     22411   1       10.1606-76.9961 .312633 1
GRID     22412   1       10.0817-79.1066 .29662  1
GRID     22413   1       10.0167-81.2475 .283523 1
GRID     22414   1       9.96578-83.4132 .273337 1
GRID     22415   1       9.6173 -84.3153 .205009 1
GRID     22416   1       9.27138-85.285  .139679 1
GRID     22417   1       10.5256-76.3898 .388398 1
GRID     22418   1       8.61378-106.711 .022294 1
GRID     22419   1       8.98505-107.27  .087473 1
GRID     22420   1       9.35712-107.784 .15564  1
GRID     22421   1       9.48044-109.977 .178865 1
GRID     22422   1       9.6173 -112.111 .205009 1
GRID     22423   1       9.76711-114.183 .234074 1
GRID     22424   1       9.54912-116.037 .191936 1
GRID     22425   1       9.34158-117.976 .152737 1
GRID     22426   1       8.76418-120.    .048356 1
GRID     22427   1       8.38313-120.   -.016775 1
GRID     22428   1       9.27138-94.715  .139679 1
GRID     22429   1       9.6173 -95.6847 .205009 1
GRID     22430   1       9.96578-96.5868 .273337 1
GRID     22431   1       10.0167-98.7525 .283523 1
GRID     22432   1       10.0817-100.893 .29662  1
GRID     22433   1       10.1606-103.004 .312633 1
GRID     22434   1       9.88532-104.511 .257339 1
GRID     22435   1       9.6173 -106.102 .205009 1
GRID     22436   1       10.2743-84.6799 .335932 1
GRID     22437   1       10.5875-85.8722 .401523 1
GRID     22438   1       10.5875-94.1278 .401523 1
GRID     22439   1       10.2743-95.3201 .335932 1
GRID     22440   1       10.1463-114.401 .309721 1
GRID     22441   1       10.5256-114.603 .388398 1
GRID     22442   1       10.5256-103.61  .388398 1
GRID     22444   1       4.3945 -64.3066-.165907 1
GRID     22445   1       4.24321-68.9483-.178793 1
GRID     22446   1       4.1217 -73.8979-.188812 1
GRID     22447   1       3.75292-75.2953-.217431 1
GRID     22448   1       3.38686-76.9961-.243174 1
GRID     22450   1       3.38686-103.004-.243174 1
GRID     22451   1       3.75292-104.705-.217431 1
GRID     22452   1       4.1217 -106.102-.188812 1
GRID     22453   1       4.24321-111.052-.178793 1
GRID     22454   1       4.3945 -115.693-.165907 1
GRID     22455   1       4.3945 -77.4802-.165907 1
GRID     22456   1       4.68244-80.633 -.140124 1
GRID     22457   1       4.98289-83.4132-.111463 1
GRID     22458   1       4.95367-87.7958-.114329 1
GRID     22459   1       4.95367-92.2042-.114329 1
GRID     22460   1       4.98289-96.5868-.111463 1
GRID     22461   1       4.68244-99.367 -.140124 1
GRID     22462   1       4.3945 -102.52 -.165907 1
GRID     22466   1       6.23808-72.2164 .027777 1
GRID     22467   1       6.13244-75.6084 .014843 1
GRID     22468   1       6.049  -79.1066 .004784 1
GRID     22469   1       5.69031-80.3626-.036866 1
GRID     22470   1       5.33472-81.7868-.075613 1
GRID     22478   1       5.33472-98.2132-.075613 1
GRID     22479   1       5.69031-99.6374-.036866 1
GRID     22480   1       6.049  -100.893 .004784 1
GRID     22481   1       6.13244-104.392 .014843 1
GRID     22482   1       6.23808-107.784 .027777 1
GRID     22483   1       6.36481-111.052 .043592 1
GRID     22484   1       6.13244-113.822 .014843 1
GRID     22485   1       5.91551-116.802-.011019 1
GRID     22486   1       5.33472-120.   -.075613 1
GRID     22487   1       4.95367-120.   -.114329 1
GRID     22488   1       6.34196-81.3609 .040717 1
GRID     22489   1       6.64385-83.4132 .079552 1
GRID     22490   1       6.95353-85.285  .121299 1
GRID     22491   1       6.93262-88.4252 .118417 1
GRID     22492   1       6.93262-91.5748 .118417 1
GRID     22493   1       6.95353-94.715  .121299 1
GRID     22494   1       6.64385-96.5868 .079552 1
GRID     22495   1       6.34196-98.6391 .040717 1
GRID     22499   1       8.14594-76.4738 .30019  1
GRID     22500   1       8.06533-79.1066 .287183 1
GRID     22501   1       8.00207-81.7868 .27707  1
GRID     22502   1       7.64955-82.8462 .222207 1
GRID     22503   1       7.29989-84.0075 .170286 1
GRID     22506   1       9.76711-65.8175 .590074 1
GRID     22509   1       9.35712-72.2164 .51164  1
GRID     22512   1       10.5256-65.397  .744398 1
GRID     22513   1       10.1463-65.5994 .665721 1
GRID     22514   1       6.74148-111.556 .092504 1
GRID     22515   1       7.11862-112.006 .144346 1
GRID     22516   1       7.49616-112.411 .199124 1
GRID     22517   1       7.64955-115.05  .222207 1
GRID     22518   1       7.81852-117.581 .248187 1
GRID     22519   1       7.29989-95.9926 .170286 1
GRID     22520   1       7.64955-97.1538 .222207 1
GRID     22521   1       8.00207-98.2132 .27707  1
GRID     22522   1       8.06533-100.893 .287183 1
GRID     22523   1       8.14594-103.526 .30019  1
GRID     22524   1       8.2434 -106.102 .31609  1
GRID     22525   1       7.98391-108.073 .274182 1
GRID     22526   1       7.73449-110.174 .235196 1
GRID     22527   1       8.30482-83.4132 .326212 1
GRID     22528   1       8.61378-84.9241 .378294 1
GRID     22529   1       8.92831-86.3295 .433329 1
GRID     22530   1       8.91204-88.775  .43043  1
GRID     22531   1       8.91204-91.225  .43043  1
GRID     22532   1       8.92831-93.6705 .433329 1
GRID     22533   1       8.61378-95.0759 .378294 1
GRID     22534   1       8.30482-96.5868 .326212 1
GRID     22535   1       9.6173 -73.8979 .561009 1
GRID     22536   1       9.88532-75.4895 .613339 1
GRID     22537   1       10.1606-76.9961 .668633 1
GRID     22538   1       10.0817-79.1066 .65262  1
GRID     22539   1       10.0167-81.2475 .639523 1
GRID     22540   1       9.96578-83.4132 .629337 1
GRID     22541   1       9.6173 -84.3153 .561009 1
GRID     22542   1       9.27138-85.285  .495678 1
GRID     22543   1       10.5256-76.3898 .744398 1
GRID     22544   1       8.61378-106.711 .378294 1
GRID     22545   1       8.98505-107.27  .443473 1
GRID     22546   1       9.35712-107.784 .51164  1
GRID     22547   1       9.48044-109.977 .534865 1
GRID     22548   1       9.6173 -112.111 .561009 1
GRID     22549   1       9.76711-114.183 .590074 1
GRID     22550   1       9.54912-116.037 .547936 1
GRID     22551   1       9.34158-117.976 .508737 1
GRID     22552   1       8.76418-120.    .404356 1
GRID     22553   1       8.38313-120.    .339225 1
GRID     22554   1       9.27138-94.715  .495678 1
GRID     22555   1       9.6173 -95.6847 .561009 1
GRID     22556   1       9.96578-96.5868 .629337 1
GRID     22557   1       10.0167-98.7525 .639523 1
GRID     22558   1       10.0817-100.893 .65262  1
GRID     22559   1       10.1606-103.004 .668633 1
GRID     22560   1       9.88532-104.511 .613339 1
GRID     22561   1       9.6173 -106.102 .561009 1
GRID     22562   1       10.2743-84.6799 .691932 1
GRID     22563   1       10.5875-85.8722 .757523 1
GRID     22564   1       10.5875-94.1278 .757523 1
GRID     22565   1       10.2743-95.3201 .691932 1
GRID     22566   1       10.1463-114.401 .665721 1
GRID     22567   1       10.5256-114.603 .744398 1
GRID     22568   1       10.5256-103.61  .744398 1
GRID     22569   1       2.925  -80.    -1.33987 1
GRID     22570   1       2.925  -80.    -.983872 1
GRID     22571   1       2.925  -80.    -.627872 1
GRID     22572   1       2.925  -80.    -.271872 1
GRID     22573   1       2.925  -100.   -1.33987 1
GRID     22574   1       2.925  -100.   -.983872 1
GRID     22575   1       2.925  -100.   -.627872 1
GRID     22576   1       2.925  -100.   -.271872 1
GRID     22577   1       2.925  -113.333-1.33987 1
GRID     22578   1       2.925  -106.666-1.33987 1
GRID     22579   1       2.925  -93.3332-1.33987 1
GRID     22580   1       2.925  -86.6664-1.33987 1
GRID     22581   1       2.925  -73.3332-1.33987 1
GRID     22582   1       2.925  -66.6664-1.33987 1
GRID     22583   1       2.925  -60.    -1.33987 1
GRID     22584   1       2.925  -113.333-.983872 1
GRID     22585   1       2.925  -106.666-.983872 1
GRID     22586   1       2.925  -93.3332-.983872 1
GRID     22587   1       2.925  -86.6664-.983872 1
GRID     22588   1       2.925  -73.3332-.983869 1
GRID     22589   1       2.925  -66.6664-.983869 1
GRID     22590   1       2.925  -60.    -.983872 1
GRID     22591   1       2.925  -113.333-.627872 1
GRID     22592   1       2.925  -106.666-.627872 1
GRID     22593   1       2.925  -93.3332-.627872 1
GRID     22594   1       2.925  -86.6664-.627872 1
GRID     22595   1       2.925  -73.3332-.627869 1
GRID     22596   1       2.925  -66.6664-.627869 1
GRID     22597   1       2.925  -60.    -.627872 1
GRID     22598   1       2.925  -113.333-.271872 1
GRID     22599   1       2.925  -106.666-.271872 1
GRID     22600   1       2.925  -93.3332-.271872 1
GRID     22601   1       2.925  -86.6664-.271872 1
GRID     22602   1       2.925  -73.3332-.271869 1
GRID     22603   1       2.925  -66.6664-.271869 1
GRID     22604   1       2.925  -60.    -.271872 1
GRID     22605   1       10.845 -65.2376-.255004 1
GRID     22606   1       10.845 -65.2376 .100996 1
GRID     22607   1       10.845 -65.2376 .456996 1
GRID     22608   1       10.845 -65.2376 .812996 1
GRID     22609   1       10.845 -75.894 -.255001 1
GRID     22610   1       10.845 -75.894  .100999 1
GRID     22611   1       10.845 -75.894  .456999 1
GRID     22612   1       10.845 -75.894  .812999 1
GRID     22613   1       10.845 -86.7894-.254998 1
GRID     22614   1       10.845 -86.7894 .101002 1
GRID     22615   1       10.845 -86.7894 .457002 1
GRID     22616   1       10.845 -86.7894 .813002 1
GRID     22617   1       10.845 -93.2106-.254998 1
GRID     22618   1       10.845 -93.2106 .101002 1
GRID     22619   1       10.845 -93.2106 .457002 1
GRID     22620   1       10.845 -93.2106 .813002 1
GRID     22621   1       10.845 -104.106-.255001 1
GRID     22622   1       10.845 -104.106 .100999 1
GRID     22623   1       10.845 -104.106 .456999 1
GRID     22624   1       10.845 -104.106 .812999 1
GRID     22625   1       10.845 -114.762-.255004 1
GRID     22626   1       10.845 -114.762 .100996 1
GRID     22627   1       10.845 -114.762 .456996 1
GRID     22628   1       10.845 -114.762 .812996 1
GRID     22629   1       10.845 -61.9641-.255004 1
GRID     22630   1       10.845 -60.    -.255001 1
GRID     22631   1       10.845 -63.4917-.255004 1
GRID     22632   1       10.845 -67.0137-.255004 1
GRID     22633   1       10.845 -68.7897-.255013 1
GRID     22634   1       10.845 -70.5658-.255001 1
GRID     22635   1       10.845 -72.3419-.255007 1
GRID     22636   1       10.845 -74.118 -.255007 1
GRID     22637   1       10.845 -77.7099-.254995 1
GRID     22638   1       10.845 -79.5258-.255001 1
GRID     22639   1       10.845 -81.3417-.255004 1
GRID     22640   1       10.845 -83.1576-.254992 1
GRID     22641   1       10.845 -84.9735-.255001 1
GRID     22642   1       10.845 -89.    -.255013 1
GRID     22643   1       10.845 -91.    -.255013 1
GRID     22644   1       10.845 -95.0265-.255001 1
GRID     22645   1       10.845 -96.8424-.254992 1
GRID     22646   1       10.845 -98.6583-.255004 1
GRID     22647   1       10.845 -100.474-.255001 1
GRID     22648   1       10.845 -102.29 -.254995 1
GRID     22649   1       10.845 -105.882-.255007 1
GRID     22650   1       10.845 -107.658-.255007 1
GRID     22651   1       10.845 -109.434-.255001 1
GRID     22652   1       10.845 -111.21 -.255013 1
GRID     22653   1       10.845 -112.986-.255001 1
GRID     22654   1       10.845 -116.508-.255001 1
GRID     22655   1       10.845 -118.036-.255004 1
GRID     22656   1       10.845 -61.9641 .100996 1
GRID     22657   1       10.845 -60.     .100999 1
GRID     22658   1       10.845 -63.4917 .100996 1
GRID     22659   1       10.845 -67.0137 .100996 1
GRID     22660   1       10.845 -68.7897 .100987 1
GRID     22661   1       10.845 -70.5658 .100999 1
GRID     22662   1       10.845 -72.3419 .100993 1
GRID     22663   1       10.845 -74.118  .100993 1
GRID     22664   1       10.845 -77.7099 .101005 1
GRID     22665   1       10.845 -79.5258 .100999 1
GRID     22666   1       10.845 -81.3417 .100996 1
GRID     22667   1       10.845 -83.1576 .101008 1
GRID     22668   1       10.845 -84.9735 .100999 1
GRID     22669   1       10.845 -89.     .100987 1
GRID     22670   1       10.845 -91.     .100987 1
GRID     22671   1       10.845 -95.0265 .100999 1
GRID     22672   1       10.845 -96.8424 .101008 1
GRID     22673   1       10.845 -98.6583 .100996 1
GRID     22674   1       10.845 -100.474 .100999 1
GRID     22675   1       10.845 -102.29  .101005 1
GRID     22676   1       10.845 -105.882 .100993 1
GRID     22677   1       10.845 -107.658 .100993 1
GRID     22678   1       10.845 -109.434 .100999 1
GRID     22679   1       10.845 -111.21  .100987 1
GRID     22680   1       10.845 -112.986 .100999 1
GRID     22681   1       10.845 -116.508 .100999 1
GRID     22682   1       10.845 -118.036 .100996 1
GRID     22683   1       10.845 -61.9641 .456996 1
GRID     22684   1       10.845 -60.     .456999 1
GRID     22685   1       10.845 -63.4917 .456996 1
GRID     22686   1       10.845 -67.0137 .456996 1
GRID     22687   1       10.845 -68.7897 .456987 1
GRID     22688   1       10.845 -70.5658 .456999 1
GRID     22689   1       10.845 -72.3419 .456993 1
GRID     22690   1       10.845 -74.118  .456993 1
GRID     22691   1       10.845 -77.7099 .457005 1
GRID     22692   1       10.845 -79.5258 .456999 1
GRID     22693   1       10.845 -81.3417 .456996 1
GRID     22694   1       10.845 -83.1576 .457008 1
GRID     22695   1       10.845 -84.9735 .456999 1
GRID     22696   1       10.845 -89.     .456987 1
GRID     22697   1       10.845 -91.     .456987 1
GRID     22698   1       10.845 -95.0265 .456999 1
GRID     22699   1       10.845 -96.8424 .457008 1
GRID     22700   1       10.845 -98.6583 .456996 1
GRID     22701   1       10.845 -100.474 .456999 1
GRID     22702   1       10.845 -102.29  .457005 1
GRID     22703   1       10.845 -105.882 .456993 1
GRID     22704   1       10.845 -107.658 .456993 1
GRID     22705   1       10.845 -109.434 .456999 1
GRID     22706   1       10.845 -111.21  .456987 1
GRID     22707   1       10.845 -112.986 .456999 1
GRID     22708   1       10.845 -116.508 .456999 1
GRID     22709   1       10.845 -118.036 .456996 1
GRID     22710   1       10.845 -61.9641 .812996 1
GRID     22711   1       10.845 -60.     .812999 1
GRID     22712   1       10.845 -63.4917 .812996 1
GRID     22713   1       10.845 -67.0137 .812996 1
GRID     22714   1       10.845 -68.7897 .812987 1
GRID     22715   1       10.845 -70.5658 .812999 1
GRID     22716   1       10.845 -72.3419 .812993 1
GRID     22717   1       10.845 -74.118  .812993 1
GRID     22718   1       10.845 -77.7099 .813005 1
GRID     22719   1       10.845 -79.5258 .812999 1
GRID     22720   1       10.845 -81.3417 .812996 1
GRID     22721   1       10.845 -83.1576 .813008 1
GRID     22722   1       10.845 -84.9735 .812999 1
GRID     22723   1       10.845 -89.     .812987 1
GRID     22724   1       10.845 -91.     .812987 1
GRID     22725   1       10.845 -95.0265 .812999 1
GRID     22726   1       10.845 -96.8424 .813008 1
GRID     22727   1       10.845 -98.6583 .812996 1
GRID     22728   1       10.845 -100.474 .812999 1
GRID     22729   1       10.845 -102.29  .813005 1
GRID     22730   1       10.845 -105.882 .812993 1
GRID     22731   1       10.845 -107.658 .812993 1
GRID     22732   1       10.845 -109.434 .812999 1
GRID     22733   1       10.845 -111.21  .812987 1
GRID     22734   1       10.845 -112.986 .812999 1
GRID     22735   1       10.845 -116.508 .812999 1
GRID     22736   1       10.845 -118.036 .812996 1
GRID     22737   1       4.3945 -4.30662-1.23391 1
GRID     22738   1       4.24321-8.94828-1.24679 1
GRID     22739   1       4.1217 -13.8979-1.25681 1
GRID     22740   1       3.75292-15.2953-1.28543 1
GRID     22741   1       3.38686-16.9961-1.31117 1
GRID     22742   1       3.38686-43.0039-1.31117 1
GRID     22743   1       3.75292-44.7047-1.28543 1
GRID     22744   1       4.1217 -46.1021-1.25681 1
GRID     22745   1       4.24321-51.0517-1.24679 1
GRID     22746   1       4.3945 -55.6934-1.23391 1
GRID     22747   1       4.3945 -17.4802-1.23391 1
GRID     22748   1       4.68244-20.633 -1.20813 1
GRID     22749   1       4.98289-23.4132-1.17946 1
GRID     22750   1       4.95367-27.7958-1.18233 1
GRID     22751   1       4.95367-32.2042-1.18233 1
GRID     22752   1       4.98289-36.5868-1.17946 1
GRID     22753   1       4.68244-39.367 -1.20813 1
GRID     22754   1       4.3945 -42.5198-1.23391 1
GRID     22755   1       5.91551-3.19794-1.07902 1
GRID     22756   1       6.13244-6.17839-1.05316 1
GRID     22757   1       6.36481-8.94828-1.02441 1
GRID     22758   1       6.23808-12.2164-1.04022 1
GRID     22759   1       6.13244-15.6084-1.05316 1
GRID     22760   1       6.049  -19.1066-1.06322 1
GRID     22761   1       5.69031-20.3626-1.10487 1
GRID     22762   1       5.33472-21.7868-1.14361 1
GRID     22763   1       7.81852-2.41903-.819813 1
GRID     22764   1       7.64955-4.94961-.845793 1
GRID     22765   1       7.49616-7.58909-.868876 1
GRID     22766   1       7.11862-7.99414-.923654 1
GRID     22767   1       6.74148-8.44454-.975496 1
GRID     22768   1       5.33472-38.2132-1.14361 1
GRID     22769   1       5.69031-39.6374-1.10487 1
GRID     22778   1       6.34196-21.3609-1.02728 1
GRID     22779   1       6.64386-23.4132-.988448 1
GRID     22780   1       6.95353-25.285 -.946701 1
GRID     22781   1       6.93262-28.4252-.949583 1
GRID     22782   1       6.93262-31.5748-.949583 1
GRID     22786   1       7.73449-9.82643-.832805 1
GRID     22787   1       7.98391-11.927 -.793818 1
GRID     22788   1       8.2434 -13.8979-.75191  1
GRID     22789   1       8.14594-16.4738-.767811 1
GRID     22790   1       8.06533-19.1066-.780817 1
GRID     22791   1       8.00207-21.7868-.790927 1
GRID     22792   1       7.64955-22.8462-.845793 1
GRID     22793   1       7.29989-24.0075-.897714 1
GRID     22794   1       9.34159-2.02445-.559263 1
GRID     22795   1       9.54912-3.96324-.520064 1
GRID     22796   1       9.76711-5.81753-.477926 1
GRID     22797   1       9.6173 -7.88891-.506991 1
GRID     22798   1       9.48044-10.0229-.533135 1
GRID     22799   1       9.35712-12.2164-.556361 1
GRID     22800   1       8.98506-12.7305-.624528 1
GRID     22801   1       8.61378-13.2891-.689707 1
GRID     22802   1       10.5256-5.39703-.323605 1
GRID     22803   1       10.1463-5.59942-.40227  1
GRID     22817   1       8.30482-23.4132-.741791 1
GRID     22818   1       8.61378-24.9241-.689707 1
GRID     22819   1       8.92831-26.3295-.634671 1
GRID     22820   1       8.91204-28.775 -.637571 1
GRID     22821   1       8.91204-31.225 -.637571 1
GRID     22822   1       8.92831-33.6705-.634671 1
GRID     22823   1       8.61378-35.0759-.689707 1
GRID     22825   1       9.6173 -13.8979-.506991 1
GRID     22826   1       9.88532-15.4896-.454661 1
GRID     22827   1       10.1606-16.9961-.399367 1
GRID     22828   1       10.0817-19.1066-.41538  1
GRID     22829   1       10.0167-21.2475-.428477 1
GRID     22830   1       9.96578-23.4132-.438663 1
GRID     22831   1       9.6173 -24.3153-.506988 1
GRID     22832   1       9.27138-25.285 -.572322 1
GRID     22833   1       10.5256-16.3898-.323593 1
GRID     22844   1       9.27138-34.715 -.572322 1
GRID     22845   1       9.6173 -35.6847-.506991 1
GRID     22846   1       9.96578-36.5868-.43866  1
GRID     22847   1       10.0167-38.7525-.428477 1
GRID     22848   1       10.0817-40.8934-.41538  1
GRID     22849   1       10.1606-43.0039-.399367 1
GRID     22850   1       9.88532-44.5105-.454661 1
GRID     22852   1       10.2743-24.6799-.376068 1
GRID     22853   1       10.5875-25.8722-.310477 1
GRID     22854   1       10.5875-34.1278-.310477 1
GRID     22855   1       10.2743-35.3201-.376068 1
GRID     22857   1       10.5256-54.603 -.323602 1
GRID     22858   1       10.5256-43.6102-.323602 1
GRID     22859   1       4.3945 -4.30662-.877907 1
GRID     22860   1       4.24321-8.94828-.890793 1
GRID     22861   1       4.1217 -13.8979-.900812 1
GRID     22862   1       3.75292-15.2953-.929431 1
GRID     22863   1       3.38686-16.9961-.955174 1
GRID     22864   1       3.38686-43.0039-.955174 1
GRID     22865   1       3.75292-44.7047-.929431 1
GRID     22866   1       4.1217 -46.1021-.900812 1
GRID     22867   1       4.24321-51.0517-.890793 1
GRID     22868   1       4.3945 -55.6934-.877907 1
GRID     22869   1       4.3945 -17.4802-.877907 1
GRID     22870   1       4.68244-20.633 -.852125 1
GRID     22871   1       4.98289-23.4132-.823463 1
GRID     22872   1       4.95367-27.7958-.826329 1
GRID     22873   1       4.95367-32.2042-.826329 1
GRID     22874   1       4.98289-36.5868-.823463 1
GRID     22875   1       4.68244-39.367 -.852125 1
GRID     22876   1       4.3945 -42.5198-.877907 1
GRID     22877   1       5.91551-3.19794-.723019 1
GRID     22878   1       6.13244-6.17839-.697157 1
GRID     22879   1       6.36481-8.94828-.668408 1
GRID     22880   1       6.23808-12.2164-.684223 1
GRID     22881   1       6.13244-15.6084-.697157 1
GRID     22882   1       6.049  -19.1066-.707216 1
GRID     22883   1       5.69031-20.3626-.748866 1
GRID     22884   1       5.33472-21.7868-.787613 1
GRID     22885   1       7.81852-2.41903-.463813 1
GRID     22886   1       7.64955-4.94961-.489793 1
GRID     22887   1       7.49616-7.58909-.512876 1
GRID     22888   1       7.11862-7.99414-.567654 1
GRID     22889   1       6.74148-8.44454-.619496 1
GRID     22890   1       5.33472-38.2132-.787613 1
GRID     22891   1       5.69031-39.6374-.748866 1
GRID     22900   1       6.34196-21.3609-.671283 1
GRID     22901   1       6.64386-23.4132-.632448 1
GRID     22902   1       6.95353-25.285 -.590701 1
GRID     22903   1       6.93262-28.4252-.593583 1
GRID     22904   1       6.93262-31.5748-.593583 1
GRID     22908   1       7.73449-9.82643-.476805 1
GRID     22909   1       7.98391-11.927 -.437818 1
GRID     22910   1       8.2434 -13.8979-.39591  1
GRID     22911   1       8.14594-16.4738-.41181  1
GRID     22912   1       8.06533-19.1066-.424817 1
GRID     22913   1       8.00207-21.7868-.434927 1
GRID     22914   1       7.64955-22.8462-.489793 1
GRID     22915   1       7.29989-24.0075-.541714 1
GRID     22916   1       9.34159-2.02445-.203263 1
GRID     22917   1       9.54912-3.96324-.164064 1
GRID     22918   1       9.76711-5.81753-.121926 1
GRID     22919   1       9.6173 -7.88891-.150991 1
GRID     22920   1       9.48044-10.0229-.177135 1
GRID     22921   1       9.35712-12.2164-.200361 1
GRID     22922   1       8.98506-12.7305-.268527 1
GRID     22923   1       8.61378-13.2891-.333707 1
GRID     22924   1       10.5256-5.39703 .032395 1
GRID     22925   1       10.1463-5.59942-.04627  1
GRID     22939   1       8.30482-23.4132-.385791 1
GRID     22940   1       8.61378-24.9241-.333707 1
GRID     22941   1       8.92831-26.3295-.278671 1
GRID     22942   1       8.91204-28.775 -.281571 1
GRID     22943   1       8.91204-31.225 -.281571 1
GRID     22944   1       8.92831-33.6705-.278671 1
GRID     22945   1       8.61378-35.0759-.333707 1
GRID     22947   1       9.6173 -13.8979-.150991 1
GRID     22948   1       9.88532-15.4896-.098661 1
GRID     22949   1       10.1606-16.9961-.043367 1
GRID     22950   1       10.0817-19.1066-.05938  1
GRID     22951   1       10.0167-21.2475-.072477 1
GRID     22952   1       9.96578-23.4132-.082663 1
GRID     22953   1       9.6173 -24.3153-.150988 1
GRID     22954   1       9.27138-25.285 -.216322 1
GRID     22955   1       10.5256-16.3898 .032407 1
GRID     22966   1       9.27138-34.715 -.216322 1
GRID     22967   1       9.6173 -35.6847-.150991 1
GRID     22968   1       9.96578-36.5868-.08266  1
GRID     22969   1       10.0167-38.7525-.072477 1
GRID     22970   1       10.0817-40.8934-.05938  1
GRID     22971   1       10.1606-43.0039-.043367 1
GRID     22972   1       9.88532-44.5105-.098661 1
GRID     22974   1       10.2743-24.6799-.020068 1
GRID     22975   1       10.5875-25.8722 .045523 1
GRID     22976   1       10.5875-34.1278 .045523 1
GRID     22977   1       10.2743-35.3201-.020068 1
GRID     22979   1       10.5256-54.603  .032398 1
GRID     22980   1       10.5256-43.6102 .032398 1
GRID     22981   1       4.3945 -4.30662-.521907 1
GRID     22982   1       4.24321-8.94828-.534793 1
GRID     22983   1       4.1217 -13.8979-.544812 1
GRID     22984   1       3.75292-15.2953-.573431 1
GRID     22985   1       3.38686-16.9961-.599174 1
GRID     22986   1       3.38686-43.0039-.599174 1
GRID     22987   1       3.75292-44.7047-.573431 1
GRID     22988   1       4.1217 -46.1021-.544812 1
GRID     22989   1       4.24321-51.0517-.534793 1
GRID     22990   1       4.3945 -55.6934-.521907 1
GRID     22991   1       4.3945 -17.4802-.521907 1
GRID     22992   1       4.68244-20.633 -.496124 1
GRID     22993   1       4.98289-23.4132-.467463 1
GRID     22994   1       4.95367-27.7958-.470329 1
GRID     22995   1       4.95367-32.2042-.470329 1
GRID     22996   1       4.98289-36.5868-.467463 1
GRID     22997   1       4.68244-39.367 -.496124 1
GRID     22998   1       4.3945 -42.5198-.521907 1
GRID     22999   1       5.91551-3.19794-.367019 1
GRID     23000   1       6.13244-6.17839-.341157 1
GRID     23001   1       6.36481-8.94828-.312408 1
GRID     23002   1       6.23808-12.2164-.328223 1
GRID     23003   1       6.13244-15.6084-.341157 1
GRID     23004   1       6.049  -19.1066-.351216 1
GRID     23005   1       5.69031-20.3626-.392865 1
GRID     23006   1       5.33472-21.7868-.431613 1
GRID     23007   1       7.81852-2.41903-.107813 1
GRID     23008   1       7.64955-4.94961-.133793 1
GRID     23009   1       7.49616-7.58909-.156876 1
GRID     23010   1       7.11862-7.99414-.211654 1
GRID     23011   1       6.74148-8.44454-.263496 1
GRID     23012   1       5.33472-38.2132-.431613 1
GRID     23013   1       5.69031-39.6374-.392865 1
GRID     23022   1       6.34196-21.3609-.315283 1
GRID     23023   1       6.64386-23.4132-.276448 1
GRID     23024   1       6.95353-25.285 -.234701 1
GRID     23025   1       6.93262-28.4252-.237583 1
GRID     23026   1       6.93262-31.5748-.237583 1
GRID     23030   1       7.73449-9.82643-.120804 1
GRID     23031   1       7.98391-11.927 -.081818 1
GRID     23032   1       8.2434 -13.8979-.03991  1
GRID     23033   1       8.14594-16.4738-.05581  1
GRID     23034   1       8.06533-19.1066-.068817 1
GRID     23035   1       8.00207-21.7868-.078927 1
GRID     23036   1       7.64955-22.8462-.133793 1
GRID     23037   1       7.29989-24.0075-.185714 1
GRID     23038   1       9.34159-2.02445 .152737 1
GRID     23039   1       9.54912-3.96324 .191936 1
GRID     23040   1       9.76711-5.81753 .234074 1
GRID     23041   1       9.6173 -7.88891 .205009 1
GRID     23042   1       9.48044-10.0229 .178865 1
GRID     23043   1       9.35712-12.2164 .15564  1
GRID     23044   1       8.98506-12.7305 .087473 1
GRID     23045   1       8.61378-13.2891 .022294 1
GRID     23046   1       10.5256-5.39703 .388395 1
GRID     23047   1       10.1463-5.59942 .30973  1
GRID     23061   1       8.30482-23.4132-.029791 1
GRID     23062   1       8.61378-24.9241 .022294 1
GRID     23063   1       8.92831-26.3295 .077329 1
GRID     23064   1       8.91204-28.775  .07443  1
GRID     23065   1       8.91204-31.225  .07443  1
GRID     23066   1       8.92831-33.6705 .077329 1
GRID     23067   1       8.61378-35.0759 .022294 1
GRID     23069   1       9.6173 -13.8979 .205009 1
GRID     23070   1       9.88532-15.4896 .257339 1
GRID     23071   1       10.1606-16.9961 .312633 1
GRID     23072   1       10.0817-19.1066 .29662  1
GRID     23073   1       10.0167-21.2475 .283523 1
GRID     23074   1       9.96578-23.4132 .273337 1
GRID     23075   1       9.6173 -24.3153 .205012 1
GRID     23076   1       9.27138-25.285  .139679 1
GRID     23077   1       10.5256-16.3898 .388408 1
GRID     23088   1       9.27138-34.715  .139679 1
GRID     23089   1       9.6173 -35.6847 .205009 1
GRID     23090   1       9.96578-36.5868 .27334  1
GRID     23091   1       10.0167-38.7525 .283523 1
GRID     23092   1       10.0817-40.8934 .29662  1
GRID     23093   1       10.1606-43.0039 .312633 1
GRID     23094   1       9.88532-44.5105 .257339 1
GRID     23096   1       10.2743-24.6799 .335932 1
GRID     23097   1       10.5875-25.8722 .401523 1
GRID     23098   1       10.5875-34.1278 .401523 1
GRID     23099   1       10.2743-35.3201 .335932 1
GRID     23101   1       10.5256-54.603  .388398 1
GRID     23102   1       10.5256-43.6102 .388398 1
GRID     23103   1       4.3945 -4.30662-.165907 1
GRID     23104   1       4.24321-8.94828-.178793 1
GRID     23105   1       4.1217 -13.8979-.188812 1
GRID     23106   1       3.75292-15.2953-.217431 1
GRID     23107   1       3.38686-16.9961-.243174 1
GRID     23108   1       3.38686-43.0039-.243174 1
GRID     23109   1       3.75292-44.7047-.217431 1
GRID     23110   1       4.1217 -46.1021-.188812 1
GRID     23111   1       4.24321-51.0517-.178793 1
GRID     23112   1       4.3945 -55.6934-.165907 1
GRID     23113   1       4.3945 -17.4802-.165907 1
GRID     23114   1       4.68244-20.633 -.140124 1
GRID     23115   1       4.98289-23.4132-.111463 1
GRID     23116   1       4.95367-27.7958-.114329 1
GRID     23117   1       4.95367-32.2042-.114329 1
GRID     23118   1       4.98289-36.5868-.111463 1
GRID     23119   1       4.68244-39.367 -.140124 1
GRID     23120   1       4.3945 -42.5198-.165907 1
GRID     23121   1       5.91551-3.19794-.011019 1
GRID     23122   1       6.13244-6.17839 .014843 1
GRID     23123   1       6.36481-8.94828 .043592 1
GRID     23124   1       6.23808-12.2164 .027777 1
GRID     23125   1       6.13244-15.6084 .014843 1
GRID     23126   1       6.049  -19.1066 .004784 1
GRID     23127   1       5.69031-20.3626-.036866 1
GRID     23128   1       5.33472-21.7868-.075613 1
GRID     23129   1       7.81852-2.41903 .248187 1
GRID     23130   1       7.64955-4.94961 .222207 1
GRID     23131   1       7.49616-7.58909 .199124 1
GRID     23132   1       7.11862-7.99414 .144346 1
GRID     23133   1       6.74148-8.44454 .092504 1
GRID     23134   1       5.33472-38.2132-.075613 1
GRID     23135   1       5.69031-39.6374-.036866 1
GRID     23144   1       6.34196-21.3609 .040717 1
GRID     23145   1       6.64386-23.4132 .079552 1
GRID     23146   1       6.95353-25.285  .121299 1
GRID     23147   1       6.93262-28.4252 .118417 1
GRID     23148   1       6.93262-31.5748 .118417 1
GRID     23152   1       7.73449-9.82643 .235196 1
GRID     23153   1       7.98391-11.927  .274182 1
GRID     23154   1       8.2434 -13.8979 .31609  1
GRID     23155   1       8.14594-16.4738 .30019  1
GRID     23156   1       8.06533-19.1066 .287183 1
GRID     23157   1       8.00207-21.7868 .277073 1
GRID     23158   1       7.64955-22.8462 .222207 1
GRID     23159   1       7.29989-24.0075 .170286 1
GRID     23160   1       9.34159-2.02445 .508737 1
GRID     23161   1       9.54912-3.96324 .547936 1
GRID     23162   1       9.76711-5.81753 .590074 1
GRID     23163   1       9.6173 -7.88891 .561009 1
GRID     23164   1       9.48044-10.0229 .534865 1
GRID     23165   1       9.35712-12.2164 .51164  1
GRID     23166   1       8.98506-12.7305 .443473 1
GRID     23167   1       8.61378-13.2891 .378294 1
GRID     23168   1       10.5256-5.39703 .744395 1
GRID     23169   1       10.1463-5.59942 .66573  1
GRID     23183   1       8.30482-23.4132 .326209 1
GRID     23184   1       8.61378-24.9241 .378294 1
GRID     23185   1       8.92831-26.3295 .433329 1
GRID     23186   1       8.91204-28.775  .43043  1
GRID     23187   1       8.91204-31.225  .43043  1
GRID     23188   1       8.92831-33.6705 .433329 1
GRID     23189   1       8.61378-35.0759 .378294 1
GRID     23191   1       9.6173 -13.8979 .561009 1
GRID     23192   1       9.88532-15.4896 .613339 1
GRID     23193   1       10.1606-16.9961 .668633 1
GRID     23194   1       10.0817-19.1066 .65262  1
GRID     23195   1       10.0167-21.2475 .639523 1
GRID     23196   1       9.96578-23.4132 .629337 1
GRID     23197   1       9.6173 -24.3153 .561012 1
GRID     23198   1       9.27138-25.285  .495678 1
GRID     23199   1       10.5256-16.3898 .744407 1
GRID     23210   1       9.27138-34.715  .495678 1
GRID     23211   1       9.6173 -35.6847 .561009 1
GRID     23212   1       9.96578-36.5868 .62934  1
GRID     23213   1       10.0167-38.7525 .639523 1
GRID     23214   1       10.0817-40.8934 .65262  1
GRID     23215   1       10.1606-43.0039 .668633 1
GRID     23216   1       9.88532-44.5105 .613339 1
GRID     23218   1       10.2743-24.6799 .691932 1
GRID     23219   1       10.5875-25.8722 .757523 1
GRID     23220   1       10.5875-34.1278 .757523 1
GRID     23221   1       10.2743-35.3201 .691932 1
GRID     23223   1       10.5256-54.603  .744398 1
GRID     23224   1       10.5256-43.6102 .744398 1
GRID     23225   1       2.925  -20.    -1.33987 1
GRID     23226   1       2.925  -20.    -.983872 1
GRID     23227   1       2.925  -20.    -.627872 1
GRID     23228   1       2.925  -20.    -.271872 1
GRID     23229   1       2.925  -40.    -1.33987 1
GRID     23230   1       2.925  -40.    -.983872 1
GRID     23231   1       2.925  -40.    -.627872 1
GRID     23232   1       2.925  -40.    -.271872 1
GRID     23233   1       2.925  -53.3332-1.33987 1
GRID     23234   1       2.925  -46.6664-1.33987 1
GRID     23235   1       2.925  -33.3332-1.33987 1
GRID     23236   1       2.925  -26.6664-1.33987 1
GRID     23237   1       2.925  -13.3332-1.33987 1
GRID     23238   1       2.925  -6.66639-1.33987 1
GRID     23239   1       2.925  -53.3332-.983872 1
GRID     23240   1       2.925  -46.6664-.983869 1
GRID     23241   1       2.925  -33.3332-.983869 1
GRID     23242   1       2.925  -26.6664-.983872 1
GRID     23243   1       2.925  -13.3332-.983869 1
GRID     23244   1       2.925  -6.66639-.983872 1
GRID     23245   1       2.925  -53.3332-.627872 1
GRID     23246   1       2.925  -46.6664-.627869 1
GRID     23247   1       2.925  -33.3332-.627869 1
GRID     23248   1       2.925  -26.6664-.627872 1
GRID     23249   1       2.925  -13.3332-.627869 1
GRID     23250   1       2.925  -6.66639-.627872 1
GRID     23251   1       2.925  -53.3332-.271872 1
GRID     23252   1       2.925  -46.6664-.271869 1
GRID     23253   1       2.925  -33.3332-.271869 1
GRID     23254   1       2.925  -26.6664-.271872 1
GRID     23255   1       2.925  -13.3332-.271869 1
GRID     23256   1       2.925  -6.66639-.271872 1
GRID     23257   1       10.845 -5.23761-.255007 1
GRID     23258   1       10.845 -5.23761 .100993 1
GRID     23259   1       10.845 -5.23761 .456993 1
GRID     23260   1       10.845 -5.23761 .812993 1
GRID     23261   1       10.845 -15.894 -.255001 1
GRID     23262   1       10.845 -15.894  .100999 1
GRID     23263   1       10.845 -15.894  .456999 1
GRID     23264   1       10.845 -15.894  .812999 1
GRID     23265   1       10.845 -26.7894-.255001 1
GRID     23266   1       10.845 -26.7894 .100999 1
GRID     23267   1       10.845 -26.7894 .456999 1
GRID     23268   1       10.845 -26.7894 .812999 1
GRID     23269   1       10.845 -33.2106-.255001 1
GRID     23270   1       10.845 -33.2106 .100999 1
GRID     23271   1       10.845 -33.2106 .456999 1
GRID     23272   1       10.845 -33.2106 .812999 1
GRID     23273   1       10.845 -44.106 -.255001 1
GRID     23274   1       10.845 -44.106  .100999 1
GRID     23275   1       10.845 -44.106  .456999 1
GRID     23276   1       10.845 -44.106  .812999 1
GRID     23277   1       10.845 -54.7624-.255001 1
GRID     23278   1       10.845 -54.7624 .100999 1
GRID     23279   1       10.845 -54.7624 .456999 1
GRID     23280   1       10.845 -54.7624 .812999 1
GRID     23281   1       10.845 -1.96408-.255007 1
GRID     23282   1       10.845 -3.49173-.254995 1
GRID     23283   1       10.845 -7.01366-.255013 1
GRID     23284   1       10.845 -8.78973-.25501  1
GRID     23285   1       10.845 -10.5658-.255007 1
GRID     23286   1       10.845 -12.3419-.254995 1
GRID     23287   1       10.845 -14.118 -.25501  1
GRID     23288   1       10.845 -17.7099-.25501  1
GRID     23289   1       10.845 -19.5258-.255004 1
GRID     23290   1       10.845 -21.3417-.255007 1
GRID     23291   1       10.845 -23.1576-.255004 1
GRID     23292   1       10.845 -24.9735-.255001 1
GRID     23293   1       10.845 -29.    -.255001 1
GRID     23294   1       10.845 -31.    -.255004 1
GRID     23295   1       10.845 -35.0265-.255001 1
GRID     23296   1       10.845 -36.8424-.255004 1
GRID     23297   1       10.845 -38.6583-.255004 1
GRID     23298   1       10.845 -40.4742-.255004 1
GRID     23299   1       10.845 -42.2901-.255004 1
GRID     23300   1       10.845 -45.882 -.255001 1
GRID     23301   1       10.845 -47.6581-.255004 1
GRID     23302   1       10.845 -49.4342-.255001 1
GRID     23303   1       10.845 -51.2103-.255001 1
GRID     23304   1       10.845 -52.9863-.255001 1
GRID     23305   1       10.845 -56.5083-.255004 1
GRID     23306   1       10.845 -58.0359-.255004 1
GRID     23307   1       10.845 -1.96408 .100993 1
GRID     23308   1       10.845 -3.49173 .101005 1
GRID     23309   1       10.845 -7.01366 .100987 1
GRID     23310   1       10.845 -8.78973 .10099  1
GRID     23311   1       10.845 -10.5658 .100993 1
GRID     23312   1       10.845 -12.3419 .101005 1
GRID     23313   1       10.845 -14.118  .10099  1
GRID     23314   1       10.845 -17.7099 .10099  1
GRID     23315   1       10.845 -19.5258 .100996 1
GRID     23316   1       10.845 -21.3417 .100993 1
GRID     23317   1       10.845 -23.1576 .100996 1
GRID     23318   1       10.845 -24.9735 .100999 1
GRID     23319   1       10.845 -29.     .100999 1
GRID     23320   1       10.845 -31.     .100996 1
GRID     23321   1       10.845 -35.0265 .100999 1
GRID     23322   1       10.845 -36.8424 .100996 1
GRID     23323   1       10.845 -38.6583 .100996 1
GRID     23324   1       10.845 -40.4742 .100996 1
GRID     23325   1       10.845 -42.2901 .100996 1
GRID     23326   1       10.845 -45.882  .100999 1
GRID     23327   1       10.845 -47.6581 .100996 1
GRID     23328   1       10.845 -49.4342 .100999 1
GRID     23329   1       10.845 -51.2103 .100999 1
GRID     23330   1       10.845 -52.9863 .100999 1
GRID     23331   1       10.845 -56.5083 .100996 1
GRID     23332   1       10.845 -58.0359 .100996 1
GRID     23333   1       10.845 -1.96408 .456993 1
GRID     23334   1       10.845 -3.49173 .457005 1
GRID     23335   1       10.845 -7.01366 .456987 1
GRID     23336   1       10.845 -8.78973 .45699  1
GRID     23337   1       10.845 -10.5658 .456993 1
GRID     23338   1       10.845 -12.3419 .457005 1
GRID     23339   1       10.845 -14.118  .45699  1
GRID     23340   1       10.845 -17.7099 .45699  1
GRID     23341   1       10.845 -19.5258 .456996 1
GRID     23342   1       10.845 -21.3417 .456993 1
GRID     23343   1       10.845 -23.1576 .456996 1
GRID     23344   1       10.845 -24.9735 .456999 1
GRID     23345   1       10.845 -29.     .456999 1
GRID     23346   1       10.845 -31.     .456996 1
GRID     23347   1       10.845 -35.0265 .456999 1
GRID     23348   1       10.845 -36.8424 .456996 1
GRID     23349   1       10.845 -38.6583 .456996 1
GRID     23350   1       10.845 -40.4742 .456996 1
GRID     23351   1       10.845 -42.2901 .456996 1
GRID     23352   1       10.845 -45.882  .456999 1
GRID     23353   1       10.845 -47.6581 .456996 1
GRID     23354   1       10.845 -49.4342 .456999 1
GRID     23355   1       10.845 -51.2103 .456999 1
GRID     23356   1       10.845 -52.9863 .456999 1
GRID     23357   1       10.845 -56.5083 .456996 1
GRID     23358   1       10.845 -58.0359 .456996 1
GRID     23359   1       10.845 -1.96408 .812993 1
GRID     23360   1       10.845 -3.49173 .813005 1
GRID     23361   1       10.845 -7.01366 .812987 1
GRID     23362   1       10.845 -8.78973 .81299  1
GRID     23363   1       10.845 -10.5658 .812993 1
GRID     23364   1       10.845 -12.3419 .813005 1
GRID     23365   1       10.845 -14.118  .81299  1
GRID     23366   1       10.845 -17.7099 .81299  1
GRID     23367   1       10.845 -19.5258 .812996 1
GRID     23368   1       10.845 -21.3417 .812993 1
GRID     23369   1       10.845 -23.1576 .812996 1
GRID     23370   1       10.845 -24.9735 .812999 1
GRID     23371   1       10.845 -29.     .812999 1
GRID     23372   1       10.845 -31.     .812996 1
GRID     23373   1       10.845 -35.0265 .812999 1
GRID     23374   1       10.845 -36.8424 .812996 1
GRID     23375   1       10.845 -38.6583 .812996 1
GRID     23376   1       10.845 -40.4742 .812996 1
GRID     23377   1       10.845 -42.2901 .812996 1
GRID     23378   1       10.845 -45.882  .812999 1
GRID     23379   1       10.845 -47.6581 .812996 1
GRID     23380   1       10.845 -49.4342 .812999 1
GRID     23381   1       10.845 -51.2103 .812999 1
GRID     23382   1       10.845 -52.9863 .812999 1
GRID     23383   1       10.845 -56.5083 .812996 1
GRID     23384   1       10.845 -58.0359 .812996 1
GRID     23385   1       4.3945  55.6934-1.23391 1
GRID     23386   1       4.24321 51.0517-1.24679 1
GRID     23387   1       4.1217  46.1021-1.25681 1
GRID     23388   1       3.75292 44.7047-1.28543 1
GRID     23389   1       3.38686 43.0039-1.31117 1
GRID     23390   1       3.38686 16.9961-1.31117 1
GRID     23391   1       3.75292 15.2953-1.28543 1
GRID     23392   1       4.1217  13.8979-1.25681 1
GRID     23393   1       4.24321 8.94828-1.24679 1
GRID     23394   1       4.3945  4.30662-1.23391 1
GRID     23395   1       4.3945  42.5198-1.23391 1
GRID     23396   1       4.68244 39.367 -1.20813 1
GRID     23397   1       4.98289 36.5868-1.17946 1
GRID     23398   1       4.95367 32.2042-1.18233 1
GRID     23399   1       4.95367 27.7958-1.18233 1
GRID     23400   1       4.98289 23.4132-1.17946 1
GRID     23401   1       4.68244 20.633 -1.20813 1
GRID     23402   1       4.3945  17.4802-1.23391 1
GRID     23407   1       6.13244 44.3916-1.05316 1
GRID     23408   1       6.049   40.8934-1.06322 1
GRID     23409   1       5.69031 39.6374-1.10487 1
GRID     23410   1       5.33472 38.2132-1.14361 1
GRID     23416   1       5.33472 21.7868-1.14361 1
GRID     23417   1       5.69031 20.3626-1.10487 1
GRID     23418   1       6.049   19.1066-1.06322 1
GRID     23419   1       6.13244 15.6084-1.05316 1
GRID     23420   1       6.23808 12.2164-1.04022 1
GRID     23421   1       6.36481 8.94828-1.02441 1
GRID     23422   1       6.13244 6.17839-1.05316 1
GRID     23423   1       5.91551 3.19794-1.07902 1
GRID     23424   1       5.33472 0.     -1.14361 1
GRID     23425   1       4.95367 0.     -1.18233 1
GRID     23426   1       6.34196 38.6391-1.02728 1
GRID     23427   1       6.64385 36.5868-.988448 1
GRID     23428   1       6.95353 34.715 -.946701 1
GRID     23429   1       6.93262 31.5748-.949583 1
GRID     23430   1       6.93262 28.4252-.949583 1
GRID     23431   1       6.95353 25.285 -.946701 1
GRID     23432   1       6.64386 23.4132-.988448 1
GRID     23433   1       6.34196 21.3609-1.02728 1
GRID     23435   1       7.98391 48.073 -.793818 1
GRID     23436   1       8.2434  46.1021-.75191  1
GRID     23437   1       8.14594 43.5262-.767811 1
GRID     23438   1       8.06533 40.8934-.780814 1
GRID     23439   1       8.00207 38.2132-.79093  1
GRID     23440   1       7.64955 37.1538-.845793 1
GRID     23441   1       7.29989 35.9926-.897714 1
GRID     23443   1       9.54912 56.0368-.520061 1
GRID     23444   1       9.76711 54.1825-.477926 1
GRID     23445   1       9.6173  52.1111-.506991 1
GRID     23446   1       9.48044 49.9771-.533132 1
GRID     23447   1       9.35712 47.7837-.556361 1
GRID     23448   1       8.98506 47.2695-.624528 1
GRID     23449   1       8.61378 46.7109-.689707 1
GRID     23450   1       10.5256 54.603 -.323602 1
GRID     23451   1       10.1463 54.4006-.402279 1
GRID     23452   1       6.74148 8.44454-.975496 1
GRID     23453   1       7.11862 7.99414-.923654 1
GRID     23454   1       7.49616 7.58909-.868876 1
GRID     23455   1       7.64955 4.94961-.845793 1
GRID     23456   1       7.81852 2.41903-.819813 1
GRID     23457   1       7.29989 24.0075-.897714 1
GRID     23458   1       7.64955 22.8462-.845793 1
GRID     23459   1       8.00207 21.7868-.790927 1
GRID     23460   1       8.06533 19.1066-.780817 1
GRID     23461   1       8.14594 16.4738-.767811 1
GRID     23462   1       8.2434  13.8979-.75191  1
GRID     23463   1       7.98391 11.927 -.793818 1
GRID     23464   1       7.73449 9.82643-.832805 1
GRID     23465   1       8.30482 36.5868-.741788 1
GRID     23466   1       8.61378 35.0759-.689707 1
GRID     23467   1       8.92831 33.6705-.634671 1
GRID     23468   1       8.91204 31.225 -.637571 1
GRID     23469   1       8.91204 28.775 -.637571 1
GRID     23470   1       8.92831 26.3295-.634671 1
GRID     23471   1       8.61378 24.9241-.689707 1
GRID     23472   1       8.30482 23.4132-.741791 1
GRID     23473   1       9.6173  46.1021-.506988 1
GRID     23474   1       9.88532 44.5105-.454661 1
GRID     23475   1       10.1606 43.0039-.399367 1
GRID     23476   1       10.0817 40.8934-.41538  1
GRID     23477   1       10.0167 38.7525-.428477 1
GRID     23478   1       9.96578 36.5868-.438663 1
GRID     23479   1       9.6173  35.6847-.506991 1
GRID     23480   1       9.27138 34.715 -.572322 1
GRID     23481   1       10.5256 43.6102-.323602 1
GRID     23482   1       8.61378 13.2891-.689707 1
GRID     23483   1       8.98505 12.7305-.624528 1
GRID     23484   1       9.35712 12.2164-.556361 1
GRID     23485   1       9.48044 10.0229-.533135 1
GRID     23486   1       9.6173  7.8889 -.506991 1
GRID     23487   1       9.76711 5.81753-.477926 1
GRID     23488   1       9.54912 3.96324-.520064 1
GRID     23489   1       9.34158 2.02445-.559263 1
GRID     23490   1       8.76418 0.     -.663645 1
GRID     23491   1       8.38313 0.     -.728772 1
GRID     23492   1       9.27138 25.285 -.572322 1
GRID     23493   1       9.6173  24.3153-.506988 1
GRID     23494   1       9.96578 23.4132-.438663 1
GRID     23495   1       10.0167 21.2475-.428477 1
GRID     23496   1       10.0817 19.1066-.41538  1
GRID     23497   1       10.1606 16.9961-.39937  1
GRID     23498   1       9.88532 15.4896-.454661 1
GRID     23499   1       9.6173  13.8979-.506991 1
GRID     23500   1       10.2743 35.3201-.376068 1
GRID     23501   1       10.5875 34.1278-.310477 1
GRID     23502   1       10.5875 25.8722-.310477 1
GRID     23503   1       10.2743 24.6799-.376068 1
GRID     23504   1       10.1463 5.59942-.40227  1
GRID     23505   1       10.5256 5.39703-.323605 1
GRID     23506   1       10.5256 16.3898-.323593 1
GRID     23507   1       4.3945  55.6934-.877907 1
GRID     23508   1       4.24321 51.0517-.890793 1
GRID     23509   1       4.1217  46.1021-.900812 1
GRID     23510   1       3.75292 44.7047-.929431 1
GRID     23511   1       3.38686 43.0039-.955174 1
GRID     23512   1       3.38686 16.9961-.955174 1
GRID     23513   1       3.75292 15.2953-.929431 1
GRID     23514   1       4.1217  13.8979-.900812 1
GRID     23515   1       4.24321 8.94828-.890793 1
GRID     23516   1       4.3945  4.30662-.877907 1
GRID     23517   1       4.3945  42.5198-.877907 1
GRID     23518   1       4.68244 39.367 -.852125 1
GRID     23519   1       4.98289 36.5868-.823463 1
GRID     23520   1       4.95367 32.2042-.826329 1
GRID     23521   1       4.95367 27.7958-.826329 1
GRID     23522   1       4.98289 23.4132-.823463 1
GRID     23523   1       4.68244 20.633 -.852125 1
GRID     23524   1       4.3945  17.4802-.877907 1
GRID     23529   1       6.13244 44.3916-.697157 1
GRID     23530   1       6.049   40.8934-.707216 1
GRID     23531   1       5.69031 39.6374-.748866 1
GRID     23532   1       5.33472 38.2132-.787613 1
GRID     23538   1       5.33472 21.7868-.787613 1
GRID     23539   1       5.69031 20.3626-.748866 1
GRID     23540   1       6.049   19.1066-.707216 1
GRID     23541   1       6.13244 15.6084-.697157 1
GRID     23542   1       6.23808 12.2164-.684223 1
GRID     23543   1       6.36481 8.94828-.668408 1
GRID     23544   1       6.13244 6.17839-.697157 1
GRID     23545   1       5.91551 3.19794-.723019 1
GRID     23546   1       5.33472 0.     -.787613 1
GRID     23547   1       4.95367 0.     -.826329 1
GRID     23548   1       6.34196 38.6391-.671283 1
GRID     23549   1       6.64385 36.5868-.632448 1
GRID     23550   1       6.95353 34.715 -.590701 1
GRID     23551   1       6.93262 31.5748-.593583 1
GRID     23552   1       6.93262 28.4252-.593583 1
GRID     23553   1       6.95353 25.285 -.590701 1
GRID     23554   1       6.64386 23.4132-.632448 1
GRID     23555   1       6.34196 21.3609-.671283 1
GRID     23557   1       7.98391 48.073 -.437818 1
GRID     23558   1       8.2434  46.1021-.39591  1
GRID     23559   1       8.14594 43.5262-.41181  1
GRID     23560   1       8.06533 40.8934-.424814 1
GRID     23561   1       8.00207 38.2132-.43493  1
GRID     23562   1       7.64955 37.1538-.489793 1
GRID     23563   1       7.29989 35.9926-.541714 1
GRID     23565   1       9.54912 56.0368-.164061 1
GRID     23566   1       9.76711 54.1825-.121926 1
GRID     23567   1       9.6173  52.1111-.150991 1
GRID     23568   1       9.48044 49.9771-.177132 1
GRID     23569   1       9.35712 47.7837-.200361 1
GRID     23570   1       8.98506 47.2695-.268527 1
GRID     23571   1       8.61378 46.7109-.333707 1
GRID     23572   1       10.5256 54.603  .032398 1
GRID     23573   1       10.1463 54.4006-.046279 1
GRID     23574   1       6.74148 8.44454-.619496 1
GRID     23575   1       7.11862 7.99414-.567654 1
GRID     23576   1       7.49616 7.58909-.512876 1
GRID     23577   1       7.64955 4.94961-.489793 1
GRID     23578   1       7.81852 2.41903-.463813 1
GRID     23579   1       7.29989 24.0075-.541714 1
GRID     23580   1       7.64955 22.8462-.489793 1
GRID     23581   1       8.00207 21.7868-.434927 1
GRID     23582   1       8.06533 19.1066-.424817 1
GRID     23583   1       8.14594 16.4738-.41181  1
GRID     23584   1       8.2434  13.8979-.39591  1
GRID     23585   1       7.98391 11.927 -.437818 1
GRID     23586   1       7.73449 9.82643-.476805 1
GRID     23587   1       8.30482 36.5868-.385788 1
GRID     23588   1       8.61378 35.0759-.333707 1
GRID     23589   1       8.92831 33.6705-.278671 1
GRID     23590   1       8.91204 31.225 -.281571 1
GRID     23591   1       8.91204 28.775 -.281571 1
GRID     23592   1       8.92831 26.3295-.278671 1
GRID     23593   1       8.61378 24.9241-.333707 1
GRID     23594   1       8.30482 23.4132-.385791 1
GRID     23595   1       9.6173  46.1021-.150988 1
GRID     23596   1       9.88532 44.5105-.098661 1
GRID     23597   1       10.1606 43.0039-.043367 1
GRID     23598   1       10.0817 40.8934-.05938  1
GRID     23599   1       10.0167 38.7525-.072477 1
GRID     23600   1       9.96578 36.5868-.082663 1
GRID     23601   1       9.6173  35.6847-.150991 1
GRID     23602   1       9.27138 34.715 -.216322 1
GRID     23603   1       10.5256 43.6102 .032398 1
GRID     23604   1       8.61378 13.2891-.333707 1
GRID     23605   1       8.98505 12.7305-.268527 1
GRID     23606   1       9.35712 12.2164-.200361 1
GRID     23607   1       9.48044 10.0229-.177135 1
GRID     23608   1       9.6173  7.8889 -.150991 1
GRID     23609   1       9.76711 5.81753-.121926 1
GRID     23610   1       9.54912 3.96324-.164064 1
GRID     23611   1       9.34158 2.02445-.203263 1
GRID     23612   1       8.76418 0.     -.307645 1
GRID     23613   1       8.38313 0.     -.372772 1
GRID     23614   1       9.27138 25.285 -.216322 1
GRID     23615   1       9.6173  24.3153-.150988 1
GRID     23616   1       9.96578 23.4132-.082663 1
GRID     23617   1       10.0167 21.2475-.072477 1
GRID     23618   1       10.0817 19.1066-.05938  1
GRID     23619   1       10.1606 16.9961-.04337  1
GRID     23620   1       9.88532 15.4896-.098661 1
GRID     23621   1       9.6173  13.8979-.150991 1
GRID     23622   1       10.2743 35.3201-.020068 1
GRID     23623   1       10.5875 34.1278 .045523 1
GRID     23624   1       10.5875 25.8722 .045523 1
GRID     23625   1       10.2743 24.6799-.020068 1
GRID     23626   1       10.1463 5.59942-.04627  1
GRID     23627   1       10.5256 5.39703 .032395 1
GRID     23628   1       10.5256 16.3898 .032407 1
GRID     23629   1       4.3945  55.6934-.521907 1
GRID     23630   1       4.24321 51.0517-.534793 1
GRID     23631   1       4.1217  46.1021-.544812 1
GRID     23632   1       3.75292 44.7047-.573431 1
GRID     23633   1       3.38686 43.0039-.599174 1
GRID     23634   1       3.38686 16.9961-.599174 1
GRID     23635   1       3.75292 15.2953-.573431 1
GRID     23636   1       4.1217  13.8979-.544812 1
GRID     23637   1       4.24321 8.94828-.534793 1
GRID     23638   1       4.3945  4.30662-.521907 1
GRID     23639   1       4.3945  42.5198-.521907 1
GRID     23640   1       4.68244 39.367 -.496124 1
GRID     23641   1       4.98289 36.5868-.467463 1
GRID     23642   1       4.95367 32.2042-.470329 1
GRID     23643   1       4.95367 27.7958-.470329 1
GRID     23644   1       4.98289 23.4132-.467463 1
GRID     23645   1       4.68244 20.633 -.496124 1
GRID     23646   1       4.3945  17.4802-.521907 1
GRID     23651   1       6.13244 44.3916-.341157 1
GRID     23652   1       6.049   40.8934-.351216 1
GRID     23653   1       5.69031 39.6374-.392865 1
GRID     23654   1       5.33472 38.2132-.431613 1
GRID     23660   1       5.33472 21.7868-.431613 1
GRID     23661   1       5.69031 20.3626-.392865 1
GRID     23662   1       6.049   19.1066-.351216 1
GRID     23663   1       6.13244 15.6084-.341157 1
GRID     23664   1       6.23808 12.2164-.328223 1
GRID     23665   1       6.36481 8.94828-.312408 1
GRID     23666   1       6.13244 6.17839-.341157 1
GRID     23667   1       5.91551 3.19794-.367019 1
GRID     23668   1       5.33472 0.     -.431613 1
GRID     23669   1       4.95367 0.     -.470329 1
GRID     23670   1       6.34196 38.6391-.315283 1
GRID     23671   1       6.64385 36.5868-.276448 1
GRID     23672   1       6.95353 34.715 -.234701 1
GRID     23673   1       6.93262 31.5748-.237583 1
GRID     23674   1       6.93262 28.4252-.237583 1
GRID     23675   1       6.95353 25.285 -.234701 1
GRID     23676   1       6.64386 23.4132-.276448 1
GRID     23677   1       6.34196 21.3609-.315283 1
GRID     23679   1       7.98391 48.073 -.081818 1
GRID     23680   1       8.2434  46.1021-.03991  1
GRID     23681   1       8.14594 43.5262-.05581  1
GRID     23682   1       8.06533 40.8934-.068814 1
GRID     23683   1       8.00207 38.2132-.07893  1
GRID     23684   1       7.64955 37.1538-.133793 1
GRID     23685   1       7.29989 35.9926-.185714 1
GRID     23687   1       9.54912 56.0368 .191939 1
GRID     23688   1       9.76711 54.1825 .234074 1
GRID     23689   1       9.6173  52.1111 .205009 1
GRID     23690   1       9.48044 49.9771 .178869 1
GRID     23691   1       9.35712 47.7837 .15564  1
GRID     23692   1       8.98506 47.2695 .087473 1
GRID     23693   1       8.61378 46.7109 .022294 1
GRID     23694   1       10.5256 54.603  .388398 1
GRID     23695   1       10.1463 54.4006 .309721 1
GRID     23696   1       6.74148 8.44454-.263496 1
GRID     23697   1       7.11862 7.99414-.211654 1
GRID     23698   1       7.49616 7.58909-.156876 1
GRID     23699   1       7.64955 4.94961-.133793 1
GRID     23700   1       7.81852 2.41903-.107813 1
GRID     23701   1       7.29989 24.0075-.185714 1
GRID     23702   1       7.64955 22.8462-.133793 1
GRID     23703   1       8.00207 21.7868-.078927 1
GRID     23704   1       8.06533 19.1066-.068817 1
GRID     23705   1       8.14594 16.4738-.05581  1
GRID     23706   1       8.2434  13.8979-.03991  1
GRID     23707   1       7.98391 11.927 -.081818 1
GRID     23708   1       7.73449 9.82643-.120804 1
GRID     23709   1       8.30482 36.5868-.029788 1
GRID     23710   1       8.61378 35.0759 .022294 1
GRID     23711   1       8.92831 33.6705 .077329 1
GRID     23712   1       8.91204 31.225  .07443  1
GRID     23713   1       8.91204 28.775  .07443  1
GRID     23714   1       8.92831 26.3295 .077329 1
GRID     23715   1       8.61378 24.9241 .022294 1
GRID     23716   1       8.30482 23.4132-.029791 1
GRID     23717   1       9.6173  46.1021 .205012 1
GRID     23718   1       9.88532 44.5105 .257339 1
GRID     23719   1       10.1606 43.0039 .312633 1
GRID     23720   1       10.0817 40.8934 .29662  1
GRID     23721   1       10.0167 38.7525 .283523 1
GRID     23722   1       9.96578 36.5868 .273337 1
GRID     23723   1       9.6173  35.6847 .205009 1
GRID     23724   1       9.27138 34.715  .139679 1
GRID     23725   1       10.5256 43.6102 .388398 1
GRID     23726   1       8.61378 13.2891 .022294 1
GRID     23727   1       8.98505 12.7305 .087473 1
GRID     23728   1       9.35712 12.2164 .15564  1
GRID     23729   1       9.48044 10.0229 .178865 1
GRID     23730   1       9.6173  7.8889  .205009 1
GRID     23731   1       9.76711 5.81753 .234074 1
GRID     23732   1       9.54912 3.96324 .191936 1
GRID     23733   1       9.34158 2.02445 .152737 1
GRID     23734   1       8.76418 0.      .048356 1
GRID     23735   1       8.38313 0.     -.016772 1
GRID     23736   1       9.27138 25.285  .139679 1
GRID     23737   1       9.6173  24.3153 .205012 1
GRID     23738   1       9.96578 23.4132 .273337 1
GRID     23739   1       10.0167 21.2475 .283523 1
GRID     23740   1       10.0817 19.1066 .29662  1
GRID     23741   1       10.1606 16.9961 .31263  1
GRID     23742   1       9.88532 15.4896 .257339 1
GRID     23743   1       9.6173  13.8979 .205009 1
GRID     23744   1       10.2743 35.3201 .335932 1
GRID     23745   1       10.5875 34.1278 .401523 1
GRID     23746   1       10.5875 25.8722 .401523 1
GRID     23747   1       10.2743 24.6799 .335932 1
GRID     23748   1       10.1463 5.59942 .30973  1
GRID     23749   1       10.5256 5.39703 .388395 1
GRID     23750   1       10.5256 16.3898 .388408 1
GRID     23751   1       4.3945  55.6934-.165907 1
GRID     23752   1       4.24321 51.0517-.178793 1
GRID     23753   1       4.1217  46.1021-.188812 1
GRID     23754   1       3.75292 44.7047-.217431 1
GRID     23755   1       3.38686 43.0039-.243174 1
GRID     23756   1       3.38686 16.9961-.243174 1
GRID     23757   1       3.75292 15.2953-.217431 1
GRID     23758   1       4.1217  13.8979-.188812 1
GRID     23759   1       4.24321 8.94828-.178793 1
GRID     23760   1       4.3945  4.30662-.165907 1
GRID     23761   1       4.3945  42.5198-.165907 1
GRID     23762   1       4.68244 39.367 -.140124 1
GRID     23763   1       4.98289 36.5868-.111463 1
GRID     23764   1       4.95367 32.2042-.114329 1
GRID     23765   1       4.95367 27.7958-.114329 1
GRID     23766   1       4.98289 23.4132-.111463 1
GRID     23767   1       4.68244 20.633 -.140124 1
GRID     23768   1       4.3945  17.4802-.165907 1
GRID     23773   1       6.13244 44.3916 .014843 1
GRID     23774   1       6.049   40.8934 .004784 1
GRID     23775   1       5.69031 39.6374-.036866 1
GRID     23776   1       5.33472 38.2132-.075613 1
GRID     23782   1       5.33472 21.7868-.075613 1
GRID     23783   1       5.69031 20.3626-.036866 1
GRID     23784   1       6.049   19.1066 .004784 1
GRID     23785   1       6.13244 15.6084 .014843 1
GRID     23786   1       6.23808 12.2164 .027777 1
GRID     23787   1       6.36481 8.94828 .043592 1
GRID     23788   1       6.13244 6.17839 .014843 1
GRID     23789   1       5.91551 3.19794-.011019 1
GRID     23790   1       5.33472 0.     -.075613 1
GRID     23791   1       4.95367 0.     -.114329 1
GRID     23792   1       6.34196 38.6391 .040717 1
GRID     23793   1       6.64385 36.5868 .079552 1
GRID     23794   1       6.95353 34.715  .121299 1
GRID     23795   1       6.93262 31.5748 .118417 1
GRID     23796   1       6.93262 28.4252 .118417 1
GRID     23797   1       6.95353 25.285  .121299 1
GRID     23798   1       6.64386 23.4132 .079552 1
GRID     23799   1       6.34196 21.3609 .040717 1
GRID     23801   1       7.98391 48.073  .274182 1
GRID     23802   1       8.2434  46.1021 .31609  1
GRID     23803   1       8.14594 43.5262 .30019  1
GRID     23804   1       8.06533 40.8934 .287186 1
GRID     23805   1       8.00207 38.2132 .27707  1
GRID     23806   1       7.64955 37.1538 .222207 1
GRID     23807   1       7.29989 35.9926 .170286 1
GRID     23809   1       9.54912 56.0368 .547939 1
GRID     23810   1       9.76711 54.1825 .590074 1
GRID     23811   1       9.6173  52.1111 .561009 1
GRID     23812   1       9.48044 49.9771 .534868 1
GRID     23813   1       9.35712 47.7837 .51164  1
GRID     23814   1       8.98506 47.2695 .443473 1
GRID     23815   1       8.61378 46.7109 .378294 1
GRID     23816   1       10.5256 54.603  .744398 1
GRID     23817   1       10.1463 54.4006 .665721 1
GRID     23818   1       6.74148 8.44454 .092504 1
GRID     23819   1       7.11862 7.99414 .144346 1
GRID     23820   1       7.49616 7.58909 .199124 1
GRID     23821   1       7.64955 4.94961 .222207 1
GRID     23822   1       7.81852 2.41903 .248187 1
GRID     23823   1       7.29989 24.0075 .170286 1
GRID     23824   1       7.64955 22.8462 .222207 1
GRID     23825   1       8.00207 21.7868 .277073 1
GRID     23826   1       8.06533 19.1066 .287183 1
GRID     23827   1       8.14594 16.4738 .30019  1
GRID     23828   1       8.2434  13.8979 .31609  1
GRID     23829   1       7.98391 11.927  .274182 1
GRID     23830   1       7.73449 9.82643 .235196 1
GRID     23831   1       8.30482 36.5868 .326212 1
GRID     23832   1       8.61378 35.0759 .378294 1
GRID     23833   1       8.92831 33.6705 .433329 1
GRID     23834   1       8.91204 31.225  .43043  1
GRID     23835   1       8.91204 28.775  .43043  1
GRID     23836   1       8.92831 26.3295 .433329 1
GRID     23837   1       8.61378 24.9241 .378294 1
GRID     23838   1       8.30482 23.4132 .326209 1
GRID     23839   1       9.6173  46.1021 .561012 1
GRID     23840   1       9.88532 44.5105 .613339 1
GRID     23841   1       10.1606 43.0039 .668633 1
GRID     23842   1       10.0817 40.8934 .65262  1
GRID     23843   1       10.0167 38.7525 .639523 1
GRID     23844   1       9.96578 36.5868 .629337 1
GRID     23845   1       9.6173  35.6847 .561009 1
GRID     23846   1       9.27138 34.715  .495678 1
GRID     23847   1       10.5256 43.6102 .744398 1
GRID     23848   1       8.61378 13.2891 .378294 1
GRID     23849   1       8.98505 12.7305 .443473 1
GRID     23850   1       9.35712 12.2164 .51164  1
GRID     23851   1       9.48044 10.0229 .534865 1
GRID     23852   1       9.6173  7.8889  .561009 1
GRID     23853   1       9.76711 5.81753 .590074 1
GRID     23854   1       9.54912 3.96324 .547936 1
GRID     23855   1       9.34158 2.02445 .508737 1
GRID     23856   1       8.76418 0.      .404356 1
GRID     23857   1       8.38313 0.      .339228 1
GRID     23858   1       9.27138 25.285  .495678 1
GRID     23859   1       9.6173  24.3153 .561012 1
GRID     23860   1       9.96578 23.4132 .629337 1
GRID     23861   1       10.0167 21.2475 .639523 1
GRID     23862   1       10.0817 19.1066 .65262  1
GRID     23863   1       10.1606 16.9961 .66863  1
GRID     23864   1       9.88532 15.4896 .613339 1
GRID     23865   1       9.6173  13.8979 .561009 1
GRID     23866   1       10.2743 35.3201 .691932 1
GRID     23867   1       10.5875 34.1278 .757523 1
GRID     23868   1       10.5875 25.8722 .757523 1
GRID     23869   1       10.2743 24.6799 .691932 1
GRID     23870   1       10.1463 5.59942 .66573  1
GRID     23871   1       10.5256 5.39703 .744395 1
GRID     23872   1       10.5256 16.3898 .744407 1
GRID     23873   1       2.925   40.    -1.33987 1
GRID     23874   1       2.925   40.    -.983872 1
GRID     23875   1       2.925   40.    -.627872 1
GRID     23876   1       2.925   40.    -.271872 1
GRID     23877   1       2.925   20.    -1.33987 1
GRID     23878   1       2.925   20.    -.983872 1
GRID     23879   1       2.925   20.    -.627872 1
GRID     23880   1       2.925   20.    -.271872 1
GRID     23881   1       2.925   6.6668 -1.33987 1
GRID     23882   1       2.925   13.3336-1.33987 1
GRID     23883   1       2.925   26.6668-1.33987 1
GRID     23884   1       2.925   33.3336-1.33987 1
GRID     23885   1       2.925   46.6668-1.33987 1
GRID     23886   1       2.925   53.3336-1.33987 1
GRID     23887   1       2.925   6.6668 -.983872 1
GRID     23888   1       2.925   13.3336-.983872 1
GRID     23889   1       2.925   26.6668-.983872 1
GRID     23890   1       2.925   33.3336-.983872 1
GRID     23891   1       2.925   46.6668-.983872 1
GRID     23892   1       2.925   53.3336-.983869 1
GRID     23893   1       2.925   6.6668 -.627872 1
GRID     23894   1       2.925   13.3336-.627872 1
GRID     23895   1       2.925   26.6668-.627872 1
GRID     23896   1       2.925   33.3336-.627872 1
GRID     23897   1       2.925   46.6668-.627872 1
GRID     23898   1       2.925   53.3336-.627869 1
GRID     23899   1       2.925   6.6668 -.271872 1
GRID     23900   1       2.925   13.3336-.271872 1
GRID     23901   1       2.925   26.6668-.271872 1
GRID     23902   1       2.925   33.3336-.271872 1
GRID     23903   1       2.925   46.6668-.271872 1
GRID     23904   1       2.925   53.3336-.271869 1
GRID     23905   1       10.845  54.7624-.255004 1
GRID     23906   1       10.845  54.7624 .100996 1
GRID     23907   1       10.845  54.7624 .456996 1
GRID     23908   1       10.845  54.7624 .812996 1
GRID     23909   1       10.845  44.106 -.255001 1
GRID     23910   1       10.845  44.106  .100999 1
GRID     23911   1       10.845  44.106  .456999 1
GRID     23912   1       10.845  44.106  .812999 1
GRID     23913   1       10.845  33.2106-.255001 1
GRID     23914   1       10.845  33.2106 .100999 1
GRID     23915   1       10.845  33.2106 .456999 1
GRID     23916   1       10.845  33.2106 .812999 1
GRID     23917   1       10.845  26.7894-.255001 1
GRID     23918   1       10.845  26.7894 .100999 1
GRID     23919   1       10.845  26.7894 .456999 1
GRID     23920   1       10.845  26.7894 .812999 1
GRID     23921   1       10.845  15.894 -.255001 1
GRID     23922   1       10.845  15.894  .100999 1
GRID     23923   1       10.845  15.894  .456999 1
GRID     23924   1       10.845  15.894  .812999 1
GRID     23925   1       10.845  5.23762-.255007 1
GRID     23926   1       10.845  5.23762 .100993 1
GRID     23927   1       10.845  5.23762 .456993 1
GRID     23928   1       10.845  5.23762 .812993 1
GRID     23929   1       10.845  58.0359-.255004 1
GRID     23930   1       10.845  56.5083-.255001 1
GRID     23931   1       10.845  52.9863-.255001 1
GRID     23932   1       10.845  51.2103-.255001 1
GRID     23933   1       10.845  49.4342-.255001 1
GRID     23934   1       10.845  47.6581-.255004 1
GRID     23935   1       10.845  45.882 -.255004 1
GRID     23936   1       10.845  42.2901-.255001 1
GRID     23937   1       10.845  40.4742-.255004 1
GRID     23938   1       10.845  38.6583-.255004 1
GRID     23939   1       10.845  36.8424-.255004 1
GRID     23940   1       10.845  35.0265-.255001 1
GRID     23941   1       10.845  31.0001-.255004 1
GRID     23942   1       10.845  29.    -.255001 1
GRID     23943   1       10.845  24.9735-.255001 1
GRID     23944   1       10.845  23.1576-.255001 1
GRID     23945   1       10.845  21.3417-.255007 1
GRID     23946   1       10.845  19.5258-.255004 1
GRID     23947   1       10.845  17.7099-.25501  1
GRID     23948   1       10.845  14.118 -.25501  1
GRID     23949   1       10.845  12.3419-.254995 1
GRID     23950   1       10.845  10.5658-.255007 1
GRID     23951   1       10.845  8.78974-.25501  1
GRID     23952   1       10.845  7.01367-.255013 1
GRID     23953   1       10.845  3.49174-.254995 1
GRID     23954   1       10.845  1.96409-.255007 1
GRID     23955   1       10.845  58.0359 .100996 1
GRID     23956   1       10.845  56.5083 .100999 1
GRID     23957   1       10.845  52.9863 .100999 1
GRID     23958   1       10.845  51.2103 .100999 1
GRID     23959   1       10.845  49.4342 .100999 1
GRID     23960   1       10.845  47.6581 .100996 1
GRID     23961   1       10.845  45.882  .100996 1
GRID     23962   1       10.845  42.2901 .100999 1
GRID     23963   1       10.845  40.4742 .100996 1
GRID     23964   1       10.845  38.6583 .100996 1
GRID     23965   1       10.845  36.8424 .100996 1
GRID     23966   1       10.845  35.0265 .100999 1
GRID     23967   1       10.845  31.0001 .100996 1
GRID     23968   1       10.845  29.     .100999 1
GRID     23969   1       10.845  24.9735 .100999 1
GRID     23970   1       10.845  23.1576 .100999 1
GRID     23971   1       10.845  21.3417 .100993 1
GRID     23972   1       10.845  19.5258 .100996 1
GRID     23973   1       10.845  17.7099 .10099  1
GRID     23974   1       10.845  14.118  .10099  1
GRID     23975   1       10.845  12.3419 .101005 1
GRID     23976   1       10.845  10.5658 .100993 1
GRID     23977   1       10.845  8.78974 .10099  1
GRID     23978   1       10.845  7.01367 .100987 1
GRID     23979   1       10.845  3.49174 .101005 1
GRID     23980   1       10.845  1.96409 .100993 1
GRID     23981   1       10.845  58.0359 .456996 1
GRID     23982   1       10.845  56.5083 .456999 1
GRID     23983   1       10.845  52.9863 .456999 1
GRID     23984   1       10.845  51.2103 .456999 1
GRID     23985   1       10.845  49.4342 .456999 1
GRID     23986   1       10.845  47.6581 .456996 1
GRID     23987   1       10.845  45.882  .456996 1
GRID     23988   1       10.845  42.2901 .456999 1
GRID     23989   1       10.845  40.4742 .456996 1
GRID     23990   1       10.845  38.6583 .456996 1
GRID     23991   1       10.845  36.8424 .456996 1
GRID     23992   1       10.845  35.0265 .456999 1
GRID     23993   1       10.845  31.0001 .456996 1
GRID     23994   1       10.845  29.     .456999 1
GRID     23995   1       10.845  24.9735 .456999 1
GRID     23996   1       10.845  23.1576 .456999 1
GRID     23997   1       10.845  21.3417 .456993 1
GRID     23998   1       10.845  19.5258 .456996 1
GRID     23999   1       10.845  17.7099 .45699  1
GRID     24000   1       10.845  14.118  .45699  1
GRID     24001   1       10.845  12.3419 .457005 1
GRID     24002   1       10.845  10.5658 .456993 1
GRID     24003   1       10.845  8.78974 .45699  1
GRID     24004   1       10.845  7.01367 .456987 1
GRID     24005   1       10.845  3.49174 .457005 1
GRID     24006   1       10.845  1.96409 .456993 1
GRID     24007   1       10.845  58.0359 .812996 1
GRID     24008   1       10.845  56.5083 .812999 1
GRID     24009   1       10.845  52.9863 .812999 1
GRID     24010   1       10.845  51.2103 .812999 1
GRID     24011   1       10.845  49.4342 .812999 1
GRID     24012   1       10.845  47.6581 .812996 1
GRID     24013   1       10.845  45.882  .812996 1
GRID     24014   1       10.845  42.2901 .812999 1
GRID     24015   1       10.845  40.4742 .812996 1
GRID     24016   1       10.845  38.6583 .812996 1
GRID     24017   1       10.845  36.8424 .812996 1
GRID     24018   1       10.845  35.0265 .812999 1
GRID     24019   1       10.845  31.0001 .812996 1
GRID     24020   1       10.845  29.     .812999 1
GRID     24021   1       10.845  24.9735 .812999 1
GRID     24022   1       10.845  23.1576 .812999 1
GRID     24023   1       10.845  21.3417 .812993 1
GRID     24024   1       10.845  19.5258 .812996 1
GRID     24025   1       10.845  17.7099 .81299  1
GRID     24026   1       10.845  14.118  .81299  1
GRID     24027   1       10.845  12.3419 .813005 1
GRID     24028   1       10.845  10.5658 .812993 1
GRID     24029   1       10.845  8.78974 .81299  1
GRID     24030   1       10.845  7.01367 .812987 1
GRID     24031   1       10.845  3.49174 .813005 1
GRID     24032   1       10.845  1.96409 .812993 1
GRID     24913   1       7.13899 43.8979-1.27677 1
GRID     24919   1       7.61149 47.4802-1.20757 1
GRID     24932   1       8.63062 53.4132-1.04281 1
GRID     24938   1       9.3313  55.3899-.917183 1
GRID     24947   1       8.14156 49.3832-1.12452 1
GRID     24951   1       10.2884 60.    -.729153 1
GRID     24956   1       9.72241 58.0549-.842647 1
GRID     32399   1       4.98289 83.4132-1.53546 1
GRID     32416   1       4.68244 80.633 -1.56412 1
GRID     32423   1       5.23859 70.8934-1.50965 1
GRID     32424   1       5.61323 70.1583-1.46948 1
GRID     32425   1       5.98869 69.5153-1.4264  1
GRID     32426   1       6.36481 68.9483-1.38041 1
GRID     32427   1       6.23808 72.2164-1.39622 1
GRID     32428   1       5.86621 73.0039-1.44076 1
GRID     32429   1       6.13244 75.6084-1.40916 1
GRID     32430   1       5.4956  73.8979-1.4824  1
GRID     32431   1       5.76635 76.6272-1.45225 1
GRID     32432   1       6.049   79.1066-1.41922 1
GRID     32433   1       5.69031 80.3626-1.46087 1
GRID     32434   1       5.40233 77.7837-1.49244 1
GRID     32435   1       5.33472 81.7868-1.49961 1
GRID     32436   1       5.12652 74.9209-1.52113 1
GRID     32437   1       5.04083 79.1066-1.52973 1
GRID     32438   1       4.75933 76.1021-1.55696 1
GRID     32439   1       4.86494 71.7415-1.54693 1
GRID     32442   1       4.99744 67.5891-1.53403 1
GRID     32445   1       5.15477 63.6705-1.51826 1
GRID     32446   1       5.33472 60.    -1.49961 1
GRID     32447   1       5.37539 67.0527-1.49531 1
GRID     32448   1       5.53509 63.418 -1.47809 1
GRID     32449   1       5.71577 60.    -1.458   1
GRID     32450   1       5.91551 63.1979-1.43502 1
GRID     32451   1       5.75375 66.5868-1.45369 1
GRID     32452   1       6.13244 66.1784-1.40916 1
GRID     32456   1       6.95353 85.285 -1.3027  1
GRID     32471   1       5.63904 84.1825-1.46661 1
GRID     32473   1       5.98869 82.6889-1.4264  1
GRID     32474   1       6.34196 81.3609-1.38328 1
GRID     32475   1       6.296   84.7913-1.38903 1
GRID     32476   1       6.64385 83.4132-1.34445 1
GRID     32477   1       6.85892 60.    -1.31566 1
GRID     32478   1       7.23997 60.    -1.26236 1
GRID     32479   1       7.62102 60.    -1.20612 1
GRID     32480   1       8.00207 60.    -1.14693
GRID     32481   1       7.81852 62.419 -1.17581 1
GRID     32482   1       7.43782 62.5429-1.23353 1
GRID     32483   1       7.64955 64.9496-1.20179 1
GRID     32484   1       7.05717 62.6802-1.2883  1
GRID     32485   1       7.26999 65.2087-1.25804 1
GRID     32486   1       7.49616 67.5891-1.22488 1
GRID     32487   1       7.11862 67.9941-1.27965 1
GRID     32488   1       6.74493 66.385 -1.33104 1
GRID     32489   1       6.74148 68.4445-1.3315  1
GRID     32490   1       6.55594 63.1517-1.35595 1
GRID     32491   1       6.51141 65.8175-1.36171 1
GRID     32492   1       6.296   63.0045-1.38903 1
GRID     32493   1       6.50207 60.0001-1.36292 1
GRID     32494   1       6.09682 60.    -1.41347 1
GRID     32495   1       7.13899 76.1021-1.27677 1
GRID     32496   1       7.50584 75.2953-1.22343 1
GRID     32497   1       7.87403 74.5639-1.16715 1
GRID     32498   1       8.2434  73.8979-1.10791 1
GRID     32499   1       8.14594 76.4738-1.12381 1
GRID     32500   1       7.78129 77.2695-1.18159 1
GRID     32501   1       8.06533 79.1066-1.13682 1
GRID     32502   1       7.41827 78.1432-1.23641 1
GRID     32503   1       7.70628 80.034 -1.19313 1
GRID     32504   1       8.00207 81.7868-1.14693 1
GRID     32505   1       7.64955 82.8462-1.20179 1
GRID     32506   1       7.34945 81.0517-1.24651 1
GRID     32507   1       7.29989 84.0075-1.25371 1
GRID     32508   1       7.05717 79.1066-1.2883  1
GRID     32509   1       6.99517 82.1729-1.29694 1
GRID     32510   1       6.69827 80.1736-1.33725 1
GRID     32511   1       6.77371 76.9961-1.32718 1
GRID     32512   1       6.41027 77.9917-1.37466 1
GRID     32513   1       6.50025 74.7047-1.36315 1
GRID     32514   1       6.8695  73.8979-1.31422 1
GRID     32515   1       6.61099 71.5175-1.34877 1
GRID     32516   1       6.98478 70.8934-1.29838 1
GRID     32517   1       7.23997 73.1736-1.26236 1
GRID     32518   1       7.3675  70.1555-1.24387 1
GRID     32519   1       7.73449 69.8264-1.18881 1
GRID     32520   1       7.61149 72.5198-1.20757 1
GRID     32521   1       7.98391 71.927 -1.14982 1
GRID     32525   1       7.61149 85.6934-1.20757 1
GRID     32527   1       7.95658 84.5036-1.15415 1
GRID     32528   1       8.30482 83.4132-1.09779 1
GRID     32529   1       8.26978 86.0368-1.10357 1
GRID     32530   1       8.61378 84.9241-1.04571 1
GRID     32531   1       8.63062 66.5868-1.04281 1
GRID     32532   1       9.10656 66.8162-.958579 1
GRID     32533   1       9.3881  66.0533-.906555 1
GRID     32534   1       9.76711 65.8175-.833926 1
GRID     32535   1       9.6173  67.8889-.862991 1
GRID     32536   1       9.24    68.2132-.934124 1
GRID     32537   1       9.48044 70.0229-.889135 1
GRID     32538   1       8.84796 68.4425-1.00492 1
GRID     32539   1       9.10545 70.4403-.958782 1
GRID     32540   1       9.35712 72.2164-.912361 1
GRID     32541   1       8.98505 72.7305-.980527 1
GRID     32542   1       8.73098 70.8934-1.02544 1
GRID     32543   1       8.61378 73.2891-1.04571 1
GRID     32544   1       8.54057 69.7147-1.05823 1
GRID     32545   1       8.3571  71.3871-1.08911 1
GRID     32546   1       8.14145 70.617 -1.12454 1
GRID     32547   1       8.2522  66.8903-1.10646 1
GRID     32548   1       7.87403 67.2229-1.16715 1
GRID     32549   1       8.02925 64.715 -1.1426  1
GRID     32550   1       8.40907 64.5016-1.08044 1
GRID     32551   1       8.19924 62.3066-1.11514 1
GRID     32552   1       8.38313 60.    -1.08478 1
GRID     32553   1       8.58    62.2042-1.0515  1
GRID     32554   1       8.76418 60.    -1.01964 1
GRID     32555   1       8.78899 64.3066-1.0153  1
GRID     32556   1       8.96078 62.1105-.984874 1
GRID     32557   1       9.14523 60.    -.951532 1
GRID     32558   1       9.34158 62.0245-.915263 1
GRID     32559   1       9.3313  64.6101-.91718  1
GRID     32560   1       9.54912 63.9632-.876064 1
GRID     32561   1       9.0735  79.1066-.964581 1
GRID     32562   1       9.43438 78.3491-.897843 1
GRID     32563   1       9.7968  77.6475-.828111 1
GRID     32566   1       9.72241 79.8417-.842647 1
GRID     32568   1       9.36487 80.633 -.910908 1
GRID     32569   1       9.66248 82.0663-.854273 1
GRID     32570   1       9.31045 82.9473-.921069 1
GRID     32571   1       9.00926 81.487 -.976178 1
GRID     32572   1       8.96078 83.8973-.984874 1
GRID     32573   1       8.65582 82.4109-1.03847 1
GRID     32574   1       8.71433 79.9267-1.02834 1
GRID     32575   1       8.3571  80.8171-1.08911 1
GRID     32576   1       8.42632 78.2585-1.07754 1
GRID     32577   1       8.78899 77.4802-1.0153  1
GRID     32578   1       8.51204 75.7464-1.06307 1
GRID     32579   1       8.87939 75.0791-.999364 1
GRID     32580   1       9.15316 76.7637-.950082 1
GRID     32581   1       9.24785 74.465 -.932674 1
GRID     32582   1       9.6173  73.8979-.862991 1
GRID     32583   1       9.51866 76.1021-.881873 1
GRID     32584   1       9.88532 75.4895-.810661 1
GRID     32585   1       10.5256 65.397 -.679602 1
GRID     32586   1       10.1463 65.5994-.758279 1
GRID     32589   1       10.4841 61.8038-.68835  1
GRID     32590   1       10.5735 63.5767-.669455 1
GRID     32594   1       9.90733 60.    -.806299 1
GRID     32595   1       9.50207 60.    -.885028 1
GRID     32596   1       9.72241 61.9451-.842647 1
GRID     32597   1       10.1033 61.8718-.767015 1
GRID     32598   1       9.92929 63.8113-.801934 1
GRID     32599   1       10.3095 63.6705-.724785 1
GRID     32607   1       10.3727 67.3111-.71167  1
GRID     32608   1       10.2318 69.2802-.740807 1
GRID     32609   1       9.99488 67.5891-.788842 1
GRID     32610   1       9.8559  69.6374-.816479 1
GRID     32611   1       10.1033 71.3018-.767015 1
GRID     32612   1       9.72987 71.7415-.841194 1
GRID     32613   1       9.98761 73.3728-.790298 1
GRID     32622   1       10.845  63.4917-.611001 1
GRID     32644   1       6.23808 47.7837-1.39622 1
GRID     32645   1       6.36481 51.0517-1.38041 1
GRID     32646   1       6.13244 53.8216-1.40916 1
GRID     32647   1       5.91551 56.8021-1.43502 1
GRID     32650   1       7.49616 52.4109-1.22488 1
GRID     32651   1       7.64955 55.0504-1.20179 1
GRID     32652   1       7.81852 57.581 -1.17581 1
GRID     32653   1       6.74148 51.5555-1.3315  1
GRID     32654   1       7.11862 52.0059-1.27965 1
GRID     32665   1       7.73449 50.1736-1.18881 1
GRID     32673   1       9.34159 57.9756-.915263 1
GRID     32717   1       5.98869 50.4847-1.4264  1
GRID     32718   1       5.75375 53.4132-1.45369 1
GRID     32720   1       5.53509 56.582 -1.47809 1
GRID     32731   1       7.05717 57.3198-1.2883  1
GRID     32732   1       7.26999 54.7913-1.25804 1
GRID     32733   1       7.43782 57.4571-1.23353 1
GRID     32734   1       6.296   56.9955-1.38903 1
GRID     32735   1       6.55593 56.8485-1.35595 1
GRID     32736   1       6.51141 54.1825-1.36171 1
GRID     32737   1       6.74487 53.6157-1.33104 1
GRID     32763   1       7.23997 46.8264-1.26236 1
GRID     32764   1       7.36751 49.8445-1.24387 1
GRID     32765   1       6.98478 49.1066-1.29838 1
GRID     32766   1       6.8695  46.1021-1.31422 1
GRID     32767   1       6.61099 48.4825-1.34877 1
GRID     32768   1       6.50025 45.2953-1.36315 1
GRID     32769   1       6.77371 43.0039-1.32718 1
GRID     32782   1       8.78899 55.6934-1.0153  1
GRID     32783   1       8.96078 57.8895-.984874 1
GRID     32784   1       8.58    57.7958-1.0515  1
GRID     32785   1       8.40907 55.4984-1.08044 1
GRID     32786   1       8.19924 57.6934-1.11514 1
GRID     32787   1       8.02925 55.285 -1.1426  1
GRID     32788   1       8.2522  53.1097-1.10646 1
GRID     32789   1       7.87403 52.7771-1.16715 1
GRID     32838   1       5.71577 60.    -1.102   1
GRID     32839   1       8.00207 60.    -.790927 1
GRID     32840   1       9.14523 60.    -.595532 1
GRID     32842   1       5.71577 60.    -.745996 1
GRID     32843   1       8.00207 60.    -.434927 1
GRID     32844   1       9.14523 60.    -.239532 1
GRID     32846   1       5.71577 60.    -.389996 1
GRID     32847   1       8.00207 60.    -.078927 1
GRID     32848   1       9.14523 60.     .116468 1
GRID     32850   1       5.71577 60.    -.033996 1
GRID     32851   1       8.00207 60.     .277073 1
GRID     32852   1       9.14523 60.     .472468 1
GRID     32866   1       5.91551 56.8021-1.07902 1
GRID     32867   1       6.13244 53.8216-1.05316 1
GRID     32868   1       6.36481 51.0517-1.02441 1
GRID     32869   1       6.23808 47.7836-1.04022 1
GRID     32874   1       7.81852 57.581 -.819813 1
GRID     32875   1       7.64955 55.0504-.845793 1
GRID     32876   1       7.49616 52.4109-.868876 1
GRID     32877   1       7.11862 52.0059-.923654 1
GRID     32878   1       6.74148 51.5555-.975496 1
GRID     32884   1       7.73449 50.1736-.832805 1
GRID     32892   1       9.34159 57.9756-.559263 1
GRID     32921   1       5.91551 56.8021-.723019 1
GRID     32922   1       6.13244 53.8216-.697157 1
GRID     32923   1       6.36481 51.0517-.668408 1
GRID     32924   1       6.23808 47.7836-.684223 1
GRID     32929   1       7.81852 57.581 -.463813 1
GRID     32930   1       7.64955 55.0504-.489793 1
GRID     32931   1       7.49616 52.4109-.512876 1
GRID     32932   1       7.11862 52.0059-.567654 1
GRID     32933   1       6.74148 51.5555-.619496 1
GRID     32939   1       7.73449 50.1736-.476805 1
GRID     32947   1       9.34159 57.9756-.203263 1
GRID     32976   1       5.91551 56.8021-.367019 1
GRID     32977   1       6.13244 53.8216-.341157 1
GRID     32978   1       6.36481 51.0517-.312408 1
GRID     32979   1       6.23808 47.7836-.328223 1
GRID     32984   1       7.81852 57.581 -.107813 1
GRID     32985   1       7.64955 55.0504-.133793 1
GRID     32986   1       7.49616 52.4109-.156876 1
GRID     32987   1       7.11862 52.0059-.211654 1
GRID     32988   1       6.74148 51.5555-.263496 1
GRID     32994   1       7.73449 50.1736-.120804 1
GRID     33002   1       9.34159 57.9756 .152737 1
GRID     33031   1       5.91551 56.8021-.011019 1
GRID     33032   1       6.13244 53.8216 .014843 1
GRID     33033   1       6.36481 51.0517 .043592 1
GRID     33034   1       6.23808 47.7836 .027777 1
GRID     33039   1       7.81852 57.581  .248187 1
GRID     33040   1       7.64955 55.0504 .222207 1
GRID     33041   1       7.49616 52.4109 .199124 1
GRID     33042   1       7.11862 52.0059 .144346 1
GRID     33043   1       6.74148 51.5555 .092504 1
GRID     33049   1       7.73449 50.1736 .235196 1
GRID     33057   1       9.34159 57.9756 .508737 1
GRID     33107   1       4.98289 83.4132-1.17946 1
GRID     33108   1       4.68244 80.633 -1.20813 1
GRID     33112   1       5.33472 81.7868-1.14361 1
GRID     33113   1       5.69031 80.3626-1.10487 1
GRID     33114   1       6.049   79.1066-1.06322 1
GRID     33115   1       6.13244 75.6084-1.05316 1
GRID     33116   1       6.23808 72.2164-1.04022 1
GRID     33117   1       6.36481 68.9483-1.02441 1
GRID     33118   1       6.13244 66.1784-1.05316 1
GRID     33119   1       5.91551 63.1979-1.07902 1
GRID     33120   1       5.33472 60.    -1.14361 1
GRID     33124   1       6.95353 85.285 -.946701 1
GRID     33125   1       6.64385 83.4132-.988448 1
GRID     33126   1       6.34196 81.3609-1.02728 1
GRID     33127   1       6.74148 68.4445-.975496 1
GRID     33128   1       7.11862 67.9941-.923654 1
GRID     33129   1       7.49616 67.5891-.868876 1
GRID     33130   1       7.64955 64.9496-.845793 1
GRID     33131   1       7.81852 62.419 -.819813 1
GRID     33132   1       7.29989 84.0075-.897714 1
GRID     33133   1       7.64955 82.8462-.845793 1
GRID     33134   1       8.00207 81.7868-.79093  1
GRID     33135   1       8.06533 79.1066-.780817 1
GRID     33136   1       8.14594 76.4738-.767811 1
GRID     33137   1       8.2434  73.8979-.75191  1
GRID     33138   1       7.98391 71.927 -.793818 1
GRID     33139   1       7.73449 69.8264-.832805 1
GRID     33140   1       8.61378 84.9241-.689707 1
GRID     33141   1       8.30482 83.4132-.741788 1
GRID     33142   1       8.61378 73.2891-.689707 1
GRID     33143   1       8.98505 72.7305-.624528 1
GRID     33144   1       9.35712 72.2164-.556361 1
GRID     33145   1       9.48044 70.0229-.533135 1
GRID     33146   1       9.6173  67.8889-.506991 1
GRID     33147   1       9.76711 65.8175-.477926 1
GRID     33148   1       9.54912 63.9632-.520064 1
GRID     33149   1       9.34158 62.0245-.559263 1
GRID     33150   1       8.76418 60.    -.663645 1
GRID     33151   1       8.38313 60.    -.728775 1
GRID     33155   1       9.88532 75.4896-.454661 1
GRID     33156   1       9.6173  73.8979-.506991 1
GRID     33157   1       10.1463 65.5994-.402279 1
GRID     33158   1       10.5256 65.397 -.323602 1
GRID     33170   1       4.98289 83.4132-.823463 1
GRID     33171   1       4.68244 80.633 -.852125 1
GRID     33175   1       5.33472 81.7868-.787613 1
GRID     33176   1       5.69031 80.3626-.748866 1
GRID     33177   1       6.049   79.1066-.707216 1
GRID     33178   1       6.13244 75.6084-.697157 1
GRID     33179   1       6.23808 72.2164-.684223 1
GRID     33180   1       6.36481 68.9483-.668408 1
GRID     33181   1       6.13244 66.1784-.697157 1
GRID     33182   1       5.91551 63.1979-.723019 1
GRID     33183   1       5.33472 60.    -.787613 1
GRID     33187   1       6.95353 85.285 -.590701 1
GRID     33188   1       6.64385 83.4132-.632448 1
GRID     33189   1       6.34196 81.3609-.671283 1
GRID     33190   1       6.74148 68.4445-.619496 1
GRID     33191   1       7.11862 67.9941-.567654 1
GRID     33192   1       7.49616 67.5891-.512876 1
GRID     33193   1       7.64955 64.9496-.489793 1
GRID     33194   1       7.81852 62.419 -.463813 1
GRID     33195   1       7.29989 84.0075-.541714 1
GRID     33196   1       7.64955 82.8462-.489793 1
GRID     33197   1       8.00207 81.7868-.43493  1
GRID     33198   1       8.06533 79.1066-.424817 1
GRID     33199   1       8.14594 76.4738-.41181  1
GRID     33200   1       8.2434  73.8979-.39591  1
GRID     33201   1       7.98391 71.927 -.437818 1
GRID     33202   1       7.73449 69.8264-.476805 1
GRID     33203   1       8.61378 84.9241-.333707 1
GRID     33204   1       8.30482 83.4132-.385788 1
GRID     33205   1       8.61378 73.2891-.333707 1
GRID     33206   1       8.98505 72.7305-.268527 1
GRID     33207   1       9.35712 72.2164-.200361 1
GRID     33208   1       9.48044 70.0229-.177135 1
GRID     33209   1       9.6173  67.8889-.150991 1
GRID     33210   1       9.76711 65.8175-.121926 1
GRID     33211   1       9.54912 63.9632-.164064 1
GRID     33212   1       9.34158 62.0245-.203263 1
GRID     33213   1       8.76418 60.    -.307645 1
GRID     33214   1       8.38313 60.    -.372775 1
GRID     33218   1       9.88532 75.4896-.098661 1
GRID     33219   1       9.6173  73.8979-.150991 1
GRID     33220   1       10.1463 65.5994-.046279 1
GRID     33221   1       10.5256 65.397  .032398 1
GRID     33233   1       4.98289 83.4132-.467463 1
GRID     33234   1       4.68244 80.633 -.496124 1
GRID     33238   1       5.33472 81.7868-.431613 1
GRID     33239   1       5.69031 80.3626-.392865 1
GRID     33240   1       6.049   79.1066-.351216 1
GRID     33241   1       6.13244 75.6084-.341157 1
GRID     33242   1       6.23808 72.2164-.328223 1
GRID     33243   1       6.36481 68.9483-.312408 1
GRID     33244   1       6.13244 66.1784-.341157 1
GRID     33245   1       5.91551 63.1979-.367019 1
GRID     33246   1       5.33472 60.    -.431613 1
GRID     33250   1       6.95353 85.285 -.234701 1
GRID     33251   1       6.64385 83.4132-.276448 1
GRID     33252   1       6.34196 81.3609-.315283 1
GRID     33253   1       6.74148 68.4445-.263496 1
GRID     33254   1       7.11862 67.9941-.211654 1
GRID     33255   1       7.49616 67.5891-.156876 1
GRID     33256   1       7.64955 64.9496-.133793 1
GRID     33257   1       7.81852 62.419 -.107813 1
GRID     33258   1       7.29989 84.0075-.185714 1
GRID     33259   1       7.64955 82.8462-.133793 1
GRID     33260   1       8.00207 81.7868-.07893  1
GRID     33261   1       8.06533 79.1066-.068817 1
GRID     33262   1       8.14594 76.4738-.05581  1
GRID     33263   1       8.2434  73.8979-.03991  1
GRID     33264   1       7.98391 71.927 -.081818 1
GRID     33265   1       7.73449 69.8264-.120804 1
GRID     33266   1       8.61378 84.9241 .022294 1
GRID     33267   1       8.30482 83.4132-.029788 1
GRID     33268   1       8.61378 73.2891 .022294 1
GRID     33269   1       8.98505 72.7305 .087473 1
GRID     33270   1       9.35712 72.2164 .15564  1
GRID     33271   1       9.48044 70.0229 .178865 1
GRID     33272   1       9.6173  67.8889 .205009 1
GRID     33273   1       9.76711 65.8175 .234074 1
GRID     33274   1       9.54912 63.9632 .191936 1
GRID     33275   1       9.34158 62.0245 .152737 1
GRID     33276   1       8.76418 60.     .048356 1
GRID     33277   1       8.38313 60.    -.016775 1
GRID     33281   1       9.88532 75.4896 .257339 1
GRID     33282   1       9.6173  73.8979 .205009 1
GRID     33283   1       10.1463 65.5994 .309721 1
GRID     33284   1       10.5256 65.397  .388398 1
GRID     33296   1       4.98289 83.4132-.111463 1
GRID     33297   1       4.68244 80.633 -.140124 1
GRID     33301   1       5.33472 81.7868-.075613 1
GRID     33302   1       5.69031 80.3626-.036866 1
GRID     33303   1       6.049   79.1066 .004784 1
GRID     33304   1       6.13244 75.6084 .014843 1
GRID     33305   1       6.23808 72.2164 .027777 1
GRID     33306   1       6.36481 68.9483 .043592 1
GRID     33307   1       6.13244 66.1784 .014843 1
GRID     33308   1       5.91551 63.1979-.011019 1
GRID     33309   1       5.33472 60.    -.075613 1
GRID     33313   1       6.95353 85.285  .121299 1
GRID     33314   1       6.64385 83.4132 .079552 1
GRID     33315   1       6.34196 81.3609 .040717 1
GRID     33316   1       6.74148 68.4445 .092504 1
GRID     33317   1       7.11862 67.9941 .144346 1
GRID     33318   1       7.49616 67.5891 .199124 1
GRID     33319   1       7.64955 64.9496 .222207 1
GRID     33320   1       7.81852 62.419  .248187 1
GRID     33321   1       7.29989 84.0075 .170286 1
GRID     33322   1       7.64955 82.8462 .222207 1
GRID     33323   1       8.00207 81.7868 .27707  1
GRID     33324   1       8.06533 79.1066 .287183 1
GRID     33325   1       8.14594 76.4738 .30019  1
GRID     33326   1       8.2434  73.8979 .31609  1
GRID     33327   1       7.98391 71.927  .274182 1
GRID     33328   1       7.73449 69.8264 .235196 1
GRID     33329   1       8.61378 84.9241 .378294 1
GRID     33330   1       8.30482 83.4132 .326212 1
GRID     33331   1       8.61378 73.2891 .378294 1
GRID     33332   1       8.98505 72.7305 .443473 1
GRID     33333   1       9.35712 72.2164 .51164  1
GRID     33334   1       9.48044 70.0229 .534865 1
GRID     33335   1       9.6173  67.8889 .561009 1
GRID     33336   1       9.76711 65.8175 .590074 1
GRID     33337   1       9.54912 63.9632 .547936 1
GRID     33338   1       9.34158 62.0245 .508737 1
GRID     33339   1       8.76418 60.     .404356 1
GRID     33340   1       8.38313 60.     .339225 1
GRID     33344   1       9.88532 75.4896 .613339 1
GRID     33345   1       9.6173  73.8979 .561009 1
GRID     33346   1       10.1463 65.5994 .665721 1
GRID     33347   1       10.5256 65.397  .744398 1
GRID     34201   1       8.92831 86.3295-.990671 1
GRID     34269   1       9.6173  84.3153-.862991 1
GRID     34271   1       9.27138 85.285 -.928322 1
GRID     34299   1       9.58705 86.582 -.8688   1
GRID     34367   1       11.     63.4917-.57694  1
GRID     35045   1       8.92831 86.3295-.634671 1
GRID     35059   1       9.27138 85.285 -.572322 1
GRID     35060   1       9.6173  84.3153-.506991 1
GRID     35134   1       8.92831 86.3295-.278671 1
GRID     35148   1       9.27138 85.285 -.216322 1
GRID     35149   1       9.6173  84.3153-.150991 1
GRID     35223   1       8.92831 86.3295 .077329 1
GRID     35237   1       9.27138 85.285  .139679 1
GRID     35238   1       9.6173  84.3153 .205009 1
GRID     35312   1       8.92831 86.3295 .433329 1
GRID     35326   1       9.27138 85.285  .495678 1
GRID     35327   1       9.6173  84.3153 .561009 1
GRID     35386   1       10.845  63.4917-.255001 1
GRID     35399   1       10.845  63.4917 .100999 1
GRID     35412   1       10.845  63.4917 .456999 1
GRID     35425   1       10.845  63.4917 .812999 1
GRID     36419   1       4.57261 180.   -1.57415 1
GRID     36422   1       5.71577 180.   -1.458   1
GRID     36436   1       6.23808 167.784-1.39622 1
GRID     36437   1       6.36481 171.052-1.38041 1
GRID     36438   1       6.13244 173.822-1.40916 1
GRID     36439   1       5.91551 176.802-1.43502 1
GRID     36464   1       9.6173  172.111-.862991 1
GRID     36465   1       9.76711 174.183-.833926 1
GRID     36466   1       9.54912 176.037-.876064 1
GRID     36473   1       10.1463 174.401-.75827  1
GRID     36530   1       4.98289-156.587-1.53546 1
GRID     36533   1       6.36481-171.052-1.38041 1
GRID     36534   1       6.23808-167.784-1.39622 1
GRID     36535   1       6.13244-164.392-1.40916 1
GRID     36536   1       6.049  -160.893-1.41922 1
GRID     36537   1       5.69031-159.637-1.46087 1
GRID     36538   1       5.33472-158.213-1.49961 1
GRID     36539   1       4.95367 180.   -1.53833 1
GRID     36540   1       5.33472 180.   -1.49961 1
GRID     36541   1       5.91551-176.802-1.43502 1
GRID     36542   1       6.13244-173.822-1.40916 1
GRID     36543   1       6.95353-154.715-1.3027  1
GRID     36544   1       6.93262-151.575-1.30558 1
GRID     36547   1       6.34196-158.639-1.38328 1
GRID     36548   1       6.64385-156.587-1.34445 1
GRID     36557   1       8.2434 -166.102-1.10791 1
GRID     36558   1       8.14594-163.526-1.12381 1
GRID     36559   1       8.06533-160.893-1.13682 1
GRID     36560   1       8.00207-158.213-1.14693 1
GRID     36561   1       7.64955-157.154-1.20179 1
GRID     36562   1       7.29989-155.993-1.25371 1
GRID     36571   1       8.30482-156.587-1.09779 1
GRID     36574   1       9.76711-174.183-.833926 1
GRID     36575   1       9.6173 -172.111-.862991 1
GRID     36577   1       9.35712-167.784-.912361 1
GRID     36578   1       8.98505-167.27 -.980527 1
GRID     36579   1       8.61378-166.711-1.04571 1
GRID     36583   1       9.54912-176.037-.876064 1
GRID     36584   1       10.1606-163.004-.75537  1
GRID     36585   1       10.0817-160.893-.77138  1
GRID     36590   1       9.6173 -166.102-.862991 1
GRID     36591   1       9.88532-164.51 -.810661 1
GRID     36594   1       10.1463-174.401-.75827  1
GRID     36595   1       10.5256-163.61 -.679593 1
GRID     36604   1       10.845 -162.29 -.61101  1
GRID     36641   1       5.23859 169.107-1.50965 1
GRID     36642   1       5.4956  166.102-1.4824  1
GRID     36644   1       5.86621 166.996-1.44076 1
GRID     36645   1       5.61323 169.842-1.46948 1
GRID     36646   1       5.98869 170.485-1.4264  1
GRID     36647   1       5.75375 173.413-1.45369 1
GRID     36648   1       5.37539 172.947-1.49531 1
GRID     36649   1       5.53509 176.582-1.47809 1
GRID     36650   1       5.15477 176.33 -1.51826 1
GRID     36651   1       4.99744 172.411-1.53403 1
GRID     36652   1       4.77456 176.037-1.55553 1
GRID     36653   1       4.62    171.787-1.56985 1
GRID     36654   1       4.86494 168.259-1.54693 1
GRID     36656   1       4.75933 163.898-1.55696 1
GRID     36657   1       5.12652 165.079-1.52113 1
GRID     36667   1       6.09682-180.   -1.41347 1
GRID     36668   1       6.296   176.996-1.38903 1
GRID     36670   1       6.51141 174.183-1.36171 1
GRID     36702   1       6.61099 168.483-1.34877 1
GRID     36729   1       10.2884 180.   -.72915  1
GRID     36732   1       9.90733 180.   -.806299 1
GRID     36734   1       9.72241 178.055-.842647 1
GRID     36735   1       10.1033 178.128-.767006 1
GRID     36736   1       9.92929 176.189-.801937 1
GRID     36737   1       10.3095 176.33 -.724779 1
GRID     36775   1       10.3727 172.689-.711667 1
GRID     36777   1       9.99488 172.411-.788842 1
GRID     36853   1       5.23859-169.107-1.50965 1
GRID     36854   1       5.61323-169.842-1.46948 1
GRID     36855   1       5.98869-170.485-1.4264  1
GRID     36856   1       5.86621-166.996-1.44076 1
GRID     36857   1       5.4956 -166.102-1.4824  1
GRID     36858   1       5.76635-163.373-1.45225 1
GRID     36859   1       5.40233-162.216-1.49244 1
GRID     36860   1       5.12652-165.079-1.52113 1
GRID     36861   1       5.04083-160.893-1.52973 1
GRID     36862   1       4.75933-163.898-1.55696 1
GRID     36863   1       4.86494-168.259-1.54693 1
GRID     36865   1       4.62   -171.787-1.56985 1
GRID     36866   1       4.99744-172.411-1.53403 1
GRID     36867   1       4.77456-176.037-1.55553 1
GRID     36868   1       5.15477-176.33 -1.51826 1
GRID     36869   1       5.37539-172.947-1.49531 1
GRID     36870   1       5.53509-176.582-1.47809 1
GRID     36871   1       5.75375-173.413-1.45369 1
GRID     36872   1       5.94   -150.   -1.43215 1
GRID     36873   1       6.27289-151.741-1.39191 1
GRID     36874   1       6.61099-153.304-1.34877 1
GRID     36875   1       6.6    -150.   -1.3502  1
GRID     36876   1       6.27289-148.26 -1.39191 1
GRID     36878   1       5.61323-151.945-1.46948 1
GRID     36879   1       5.29373-154.128-1.50392 1
GRID     36880   1       5.63904-155.818-1.46661 1
GRID     36881   1       5.95221-153.671-1.43071 1
GRID     36882   1       5.98869-157.311-1.4264  1
GRID     36883   1       6.296  -155.209-1.38903 1
GRID     36889   1       6.51141-174.183-1.36171 1
GRID     36890   1       6.296  -176.996-1.38903 1
GRID     36891   1       7.13899-163.898-1.27677 1
GRID     36892   1       7.50584-164.705-1.22343 1
GRID     36893   1       7.87403-165.436-1.16715 1
GRID     36894   1       7.78129-162.731-1.18159 1
GRID     36895   1       7.41827-161.857-1.23641 1
GRID     36896   1       7.70628-159.966-1.19313 1
GRID     36897   1       7.34945-158.948-1.24651 1
GRID     36898   1       7.05717-160.893-1.2883  1
GRID     36899   1       6.99517-157.827-1.29694 1
GRID     36900   1       6.69827-159.826-1.33725 1
GRID     36901   1       6.77371-163.004-1.32718 1
GRID     36902   1       6.41027-162.008-1.37466 1
GRID     36903   1       6.50025-165.295-1.36315 1
GRID     36905   1       6.61099-168.483-1.34877 1
GRID     36924   1       7.26999-153.005-1.25804 1
GRID     36925   1       7.61149-154.307-1.20757 1
GRID     36927   1       7.95658-155.496-1.15415 1
GRID     36954   1       9.0735 -160.893-.964581 1
GRID     36955   1       9.43438-161.651-.897846 1
GRID     36956   1       9.7968 -162.353-.828111 1
GRID     36957   1       9.72241-160.158-.842647 1
GRID     36958   1       9.36487-159.367-.910908 1
GRID     36961   1       9.00926-158.513-.976178 1
GRID     36963   1       8.65582-157.589-1.03847 1
GRID     36964   1       8.71433-160.073-1.02834 1
GRID     36965   1       8.3571 -159.183-1.08911 1
GRID     36966   1       8.42632-161.742-1.07754 1
GRID     36967   1       8.78899-162.52 -1.0153  1
GRID     36968   1       8.51204-164.254-1.06307 1
GRID     36969   1       8.87939-164.921-.999364 1
GRID     36970   1       9.15316-163.236-.950079 1
GRID     36971   1       9.24785-165.535-.932674 1
GRID     36972   1       9.51866-163.898-.881873 1
GRID     36986   1       9.72241-178.055-.842647 1
GRID     36987   1       10.1033-178.128-.767006 1
GRID     36988   1       9.92929-176.189-.801937 1
GRID     36989   1       10.3095-176.33 -.724779 1
GRID     36990   1       10.4772-169.107-.689806 1
GRID     36992   1       10.3727-172.689-.711667 1
GRID     36993   1       10.2318-170.72 -.740798 1
GRID     36994   1       9.99488-172.411-.788842 1
GRID     36995   1       9.8559 -170.363-.816479 1
GRID     36996   1       10.1033-168.698-.767015 1
GRID     36997   1       9.72987-168.259-.841194 1
GRID     36998   1       9.98761-166.627-.790298 1
GRID     36999   1       10.3587-167.115-.714575 1
GRID     37000   1       10.253 -165.079-.736436 1
GRID     37001   1       10.6217-165.608-.659182 1
GRID     37002   1       10.4425-161.578-.697098 1
GRID     37009   1       11.    -162.29 -.57694  1
GRID     37026   1       4.57261 180.   -1.21815 1
GRID     37032   1       5.71577 180.   -1.102   1
GRID     37044   1       5.91551 176.802-1.07902 1
GRID     37045   1       6.13244 173.822-1.05316 1
GRID     37046   1       6.36481 171.052-1.02441 1
GRID     37047   1       6.23808 167.784-1.04022 1
GRID     37075   1       9.76711 174.183-.477926 1
GRID     37082   1       10.1463 174.401-.40227  1
GRID     37106   1       4.57261 180.   -.862153 1
GRID     37112   1       5.71577 180.   -.745996 1
GRID     37124   1       5.91551 176.802-.723019 1
GRID     37125   1       6.13244 173.822-.697157 1
GRID     37126   1       6.36481 171.052-.668408 1
GRID     37127   1       6.23808 167.784-.684223 1
GRID     37155   1       9.76711 174.183-.121926 1
GRID     37162   1       10.1463 174.401-.04627  1
GRID     37186   1       4.57261 180.   -.506152 1
GRID     37192   1       5.71577 180.   -.389996 1
GRID     37204   1       5.91551 176.802-.367019 1
GRID     37205   1       6.13244 173.822-.341157 1
GRID     37206   1       6.36481 171.052-.312408 1
GRID     37207   1       6.23808 167.784-.328223 1
GRID     37235   1       9.76711 174.183 .234074 1
GRID     37242   1       10.1463 174.401 .30973  1
GRID     37266   1       4.57261 180.   -.150152 1
GRID     37272   1       5.71577 180.   -.033996 1
GRID     37284   1       5.91551 176.802-.011019 1
GRID     37285   1       6.13244 173.822 .014843 1
GRID     37286   1       6.36481 171.052 .043592 1
GRID     37287   1       6.23808 167.784 .027777 1
GRID     37315   1       9.76711 174.183 .590074 1
GRID     37322   1       10.1463 174.401 .66573  1
GRID     37485   1       4.98289-156.587-1.17946 1
GRID     37486   1       5.33472-158.213-1.14361 1
GRID     37487   1       5.69031-159.637-1.10487 1
GRID     37488   1       6.049  -160.893-1.06322 1
GRID     37489   1       6.13244-164.392-1.05316 1
GRID     37490   1       6.23808-167.784-1.04022 1
GRID     37491   1       6.36481-171.052-1.02441 1
GRID     37492   1       6.13244-173.822-1.05316 1
GRID     37493   1       5.91551-176.802-1.07902 1
GRID     37494   1       5.33472 180.   -1.14361 1
GRID     37495   1       4.95367 180.   -1.18233 1
GRID     37498   1       6.93262-151.575-.949583 1
GRID     37499   1       6.95353-154.715-.946701 1
GRID     37500   1       6.64386-156.587-.988448 1
GRID     37501   1       6.34196-158.639-1.02728 1
GRID     37508   1       7.29989-155.993-.897714 1
GRID     37509   1       7.64955-157.154-.845793 1
GRID     37510   1       8.00207-158.213-.790927 1
GRID     37511   1       8.06533-160.893-.780817 1
GRID     37512   1       8.14594-163.526-.767811 1
GRID     37513   1       8.2434 -166.102-.75191  1
GRID     37523   1       8.30482-156.587-.741791 1
GRID     37527   1       9.35712-167.784-.556361 1
GRID     37530   1       9.76711-174.183-.477926 1
GRID     37539   1       10.0817-160.893-.41538  1
GRID     37540   1       10.1606-163.004-.39937  1
GRID     37541   1       9.88532-164.51 -.454661 1
GRID     37542   1       9.6173 -166.102-.506991 1
GRID     37544   1       10.1463-174.401-.40227  1
GRID     37546   1       10.5256-163.61 -.323593 1
GRID     37550   1       4.98289-156.587-.823463 1
GRID     37551   1       5.33472-158.213-.787613 1
GRID     37552   1       5.69031-159.637-.748866 1
GRID     37553   1       6.049  -160.893-.707216 1
GRID     37554   1       6.13244-164.392-.697157 1
GRID     37555   1       6.23808-167.784-.684223 1
GRID     37556   1       6.36481-171.052-.668408 1
GRID     37557   1       6.13244-173.822-.697157 1
GRID     37558   1       5.91551-176.802-.723019 1
GRID     37559   1       5.33472 180.   -.787613 1
GRID     37560   1       4.95367 180.   -.826329 1
GRID     37563   1       6.93262-151.575-.593583 1
GRID     37564   1       6.95353-154.715-.590701 1
GRID     37565   1       6.64386-156.587-.632448 1
GRID     37566   1       6.34196-158.639-.671283 1
GRID     37573   1       7.29989-155.993-.541714 1
GRID     37574   1       7.64955-157.154-.489793 1
GRID     37575   1       8.00207-158.213-.434927 1
GRID     37576   1       8.06533-160.893-.424817 1
GRID     37577   1       8.14594-163.526-.41181  1
GRID     37578   1       8.2434 -166.102-.39591  1
GRID     37588   1       8.30482-156.587-.385791 1
GRID     37592   1       9.35712-167.784-.200361 1
GRID     37595   1       9.76711-174.183-.121926 1
GRID     37604   1       10.0817-160.893-.05938  1
GRID     37605   1       10.1606-163.004-.04337  1
GRID     37606   1       9.88532-164.51 -.098661 1
GRID     37607   1       9.6173 -166.102-.150991 1
GRID     37609   1       10.1463-174.401-.04627  1
GRID     37611   1       10.5256-163.61  .032407 1
GRID     37615   1       4.98289-156.587-.467463 1
GRID     37616   1       5.33472-158.213-.431613 1
GRID     37617   1       5.69031-159.637-.392865 1
GRID     37618   1       6.049  -160.893-.351216 1
GRID     37619   1       6.13244-164.392-.341157 1
GRID     37620   1       6.23808-167.784-.328223 1
GRID     37621   1       6.36481-171.052-.312408 1
GRID     37622   1       6.13244-173.822-.341157 1
GRID     37623   1       5.91551-176.802-.367019 1
GRID     37624   1       5.33472 180.   -.431613 1
GRID     37625   1       4.95367 180.   -.470329 1
GRID     37628   1       6.93262-151.575-.237583 1
GRID     37629   1       6.95353-154.715-.234701 1
GRID     37630   1       6.64386-156.587-.276448 1
GRID     37631   1       6.34196-158.639-.315283 1
GRID     37638   1       7.29989-155.993-.185714 1
GRID     37639   1       7.64955-157.154-.133793 1
GRID     37640   1       8.00207-158.213-.078927 1
GRID     37641   1       8.06533-160.893-.068817 1
GRID     37642   1       8.14594-163.526-.05581  1
GRID     37643   1       8.2434 -166.102-.03991  1
GRID     37653   1       8.30482-156.587-.029791 1
GRID     37657   1       9.35712-167.784 .15564  1
GRID     37660   1       9.76711-174.183 .234074 1
GRID     37669   1       10.0817-160.893 .29662  1
GRID     37670   1       10.1606-163.004 .31263  1
GRID     37671   1       9.88532-164.51  .257339 1
GRID     37672   1       9.6173 -166.102 .205009 1
GRID     37674   1       10.1463-174.401 .30973  1
GRID     37676   1       10.5256-163.61  .388408 1
GRID     37680   1       4.98289-156.587-.111463 1
GRID     37681   1       5.33472-158.213-.075613 1
GRID     37682   1       5.69031-159.637-.036866 1
GRID     37683   1       6.049  -160.893 .004784 1
GRID     37684   1       6.13244-164.392 .014843 1
GRID     37685   1       6.23808-167.784 .027777 1
GRID     37686   1       6.36481-171.052 .043592 1
GRID     37687   1       6.13244-173.822 .014843 1
GRID     37688   1       5.91551-176.802-.011019 1
GRID     37689   1       5.33472 180.   -.075613 1
GRID     37690   1       4.95367 180.   -.114329 1
GRID     37693   1       6.93262-151.575 .118417 1
GRID     37694   1       6.95353-154.715 .121299 1
GRID     37695   1       6.64386-156.587 .079552 1
GRID     37696   1       6.34196-158.639 .040717 1
GRID     37703   1       7.29989-155.993 .170286 1
GRID     37704   1       7.64955-157.154 .222207 1
GRID     37705   1       8.00207-158.213 .277073 1
GRID     37706   1       8.06533-160.893 .287183 1
GRID     37707   1       8.14594-163.526 .30019  1
GRID     37708   1       8.2434 -166.102 .31609  1
GRID     37718   1       8.30482-156.587 .326209 1
GRID     37722   1       9.35712-167.784 .51164  1
GRID     37725   1       9.76711-174.183 .590074 1
GRID     37734   1       10.0817-160.893 .65262  1
GRID     37735   1       10.1606-163.004 .66863  1
GRID     37736   1       9.88532-164.51  .613339 1
GRID     37737   1       9.6173 -166.102 .561009 1
GRID     37739   1       10.1463-174.401 .66573  1
GRID     37741   1       10.5256-163.61  .744407 1
GRID     37751   1       10.845 -162.29 -.25501  1
GRID     37760   1       10.845 -162.29  .10099  1
GRID     37769   1       10.845 -162.29  .45699  1
GRID     37778   1       10.845 -162.29  .81299  1
GRID     39741   1       5.95221-146.33 -1.43071 1
GRID     39743   1       5.63904-144.183-1.46661 1
GRID     39744   1       5.61324-148.055-1.46948 1
GRID     39746   1       5.28   -150.   -1.50535 1
GRID     43953   1       4.57261-60.    -1.57415 1
GRID     43957   1       5.71577-60.    -1.458   1
GRID     43974   1       6.36481-68.9483-1.38041 1
GRID     43975   1       6.13244-66.1784-1.40916 1
GRID     43976   1       5.91551-63.1979-1.43502 1
GRID     43983   1       6.74148-68.4445-1.3315  1
GRID     43993   1       8.2434 -73.8979-1.10791 1
GRID     43994   1       7.98391-71.927 -1.14982 1
GRID     44095   1       6.36481-51.0517-1.38041 1
GRID     44096   1       6.23808-47.7837-1.39622 1
GRID     44097   1       6.13244-44.3916-1.40916 1
GRID     44098   1       6.049  -40.8934-1.41922 1
GRID     44101   1       4.95367-60.    -1.53833 1
GRID     44102   1       5.33472-60.    -1.49961 1
GRID     44103   1       5.91551-56.8021-1.43502 1
GRID     44104   1       6.13244-53.8216-1.40916 1
GRID     44105   1       6.95353-34.715 -1.3027  1
GRID     44111   1       6.34196-38.6391-1.38328 1
GRID     44112   1       6.64385-36.5868-1.34445 1
GRID     44121   1       6.74148-51.5555-1.3315  1
GRID     44123   1       8.14594-43.5262-1.12381 1
GRID     44124   1       8.06533-40.8934-1.13681 1
GRID     44125   1       8.00207-38.2132-1.14693 1
GRID     44126   1       7.64955-37.1538-1.20179 1
GRID     44127   1       7.29989-35.9926-1.25371 1
GRID     44136   1       8.30482-36.5868-1.09779 1
GRID     44143   1       9.6173 -52.1111-.862991 1
GRID     44144   1       9.48044-49.9771-.889132 1
GRID     44145   1       9.35712-47.7837-.912361 1
GRID     44146   1       8.98505-47.2695-.980527 1
GRID     44147   1       8.61378-46.7109-1.04571 1
GRID     44158   1       9.6173 -46.1021-.862988 1
GRID     44298   1       5.98869-69.5153-1.4264  1
GRID     44299   1       5.75375-66.5868-1.45369 1
GRID     44300   1       5.37539-67.0527-1.49531 1
GRID     44301   1       5.53509-63.418 -1.47809 1
GRID     44302   1       5.15477-63.6705-1.51826 1
GRID     44304   1       4.77456-63.9632-1.55553 1
GRID     44319   1       6.09682-60.    -1.41347 1
GRID     44334   1       7.87403-74.5639-1.16715 1
GRID     44335   1       7.61149-72.5198-1.20757 1
GRID     44336   1       7.23997-73.1736-1.26236 1
GRID     44338   1       6.98478-70.8934-1.29838 1
GRID     44340   1       6.61099-71.5175-1.34877 1
GRID     44527   1       5.23859-49.1066-1.50965 1
GRID     44528   1       5.61323-49.8417-1.46948 1
GRID     44529   1       5.98869-50.4847-1.4264  1
GRID     44530   1       5.86621-46.9961-1.44076 1
GRID     44531   1       5.4956 -46.1021-1.4824  1
GRID     44532   1       5.76635-43.3728-1.45225 1
GRID     44540   1       4.99744-52.4109-1.53403 1
GRID     44541   1       4.77456-56.0368-1.55553 1
GRID     44542   1       5.15477-56.3295-1.51826 1
GRID     44543   1       5.37539-52.9473-1.49531 1
GRID     44544   1       5.53509-56.582 -1.47809 1
GRID     44545   1       5.75375-53.4132-1.45369 1
GRID     44578   1       6.51141-54.1825-1.36171 1
GRID     44579   1       6.296  -56.9955-1.38903 1
GRID     44580   1       7.13899-43.8979-1.27677 1
GRID     44581   1       7.50584-44.7047-1.22343 1
GRID     44583   1       7.78129-42.7305-1.18159 1
GRID     44584   1       7.41827-41.8568-1.23641 1
GRID     44585   1       7.70628-39.966 -1.19313 1
GRID     44586   1       7.34945-38.9483-1.24651 1
GRID     44587   1       7.05717-40.8934-1.2883  1
GRID     44588   1       6.99517-37.8271-1.29694 1
GRID     44589   1       6.69827-39.8264-1.33725 1
GRID     44590   1       6.77371-43.0039-1.32718 1
GRID     44591   1       6.41027-42.0083-1.37466 1
GRID     44592   1       6.50025-45.2953-1.36315 1
GRID     44593   1       6.8695 -46.1021-1.31422 1
GRID     44594   1       6.61099-48.4825-1.34877 1
GRID     44595   1       6.98478-49.1066-1.29838 1
GRID     44596   1       7.23997-46.8265-1.26236 1
GRID     44599   1       7.92   -30.    -1.15993 1
GRID     44612   1       7.59239-31.438 -1.21045 1
GRID     44613   1       7.26999-33.0045-1.25804 1
GRID     44614   1       7.61149-34.3066-1.20757 1
GRID     44615   1       7.92916-32.7545-1.15848 1
GRID     44616   1       7.95658-35.4964-1.15415 1
GRID     44617   1       8.26978-33.9632-1.10357 1
GRID     44631   1       9.10545-49.5597-.958782 1
GRID     44645   1       9.0735 -40.8934-.964581 1
GRID     44654   1       8.65582-37.5891-1.03847 1
GRID     44655   1       8.71433-40.0733-1.02833 1
GRID     44656   1       8.35711-39.1829-1.08911 1
GRID     44657   1       8.42631-41.7415-1.07754 1
GRID     44658   1       8.78899-42.5198-1.0153  1
GRID     44659   1       8.51204-44.2536-1.06307 1
GRID     44660   1       8.87939-44.9209-.999367 1
GRID     44661   1       9.15316-43.2363-.950079 1
GRID     44662   1       9.24785-45.5351-.932674 1
GRID     44663   1       9.51866-43.8979-.881873 1
GRID     44692   1       10.4772-49.1066-.689809 1
GRID     44695   1       10.2318-50.7198-.740807 1
GRID     44696   1       9.99488-52.4109-.788842 1
GRID     44697   1       9.8559 -50.3626-.816479 1
GRID     44698   1       10.1033-48.6982-.767012 1
GRID     44699   1       9.72987-48.2585-.841194 1
GRID     44700   1       9.98761-46.6272-.790298 1
GRID     44890   1       4.57261-60.    -1.21815 1
GRID     44896   1       5.71577-60.    -1.102   1
GRID     44909   1       5.91551-63.1979-1.07902 1
GRID     44911   1       6.36481-68.9483-1.02441 1
GRID     44930   1       8.2434 -73.8979-.75191  1
GRID     44971   1       4.57261-60.    -.862153 1
GRID     44977   1       5.71577-60.    -.745996 1
GRID     44990   1       5.91551-63.1979-.723019 1
GRID     44992   1       6.36481-68.9483-.668408 1
GRID     45011   1       8.2434 -73.8979-.39591  1
GRID     45052   1       4.57261-60.    -.506152 1
GRID     45058   1       5.71577-60.    -.389996 1
GRID     45071   1       5.91551-63.1979-.367019 1
GRID     45073   1       6.36481-68.9483-.312408 1
GRID     45092   1       8.2434 -73.8979-.03991  1
GRID     45133   1       4.57261-60.    -.150152 1
GRID     45139   1       5.71577-60.    -.033996 1
GRID     45152   1       5.91551-63.1979-.011019 1
GRID     45154   1       6.36481-68.9483 .043592 1
GRID     45173   1       8.2434 -73.8979 .31609  1
GRID     45401   1       6.049  -40.8934-1.06322 1
GRID     45402   1       6.13244-44.3916-1.05316 1
GRID     45403   1       6.23808-47.7837-1.04022 1
GRID     45404   1       6.36481-51.0517-1.02441 1
GRID     45405   1       6.13244-53.8216-1.05316 1
GRID     45406   1       5.91551-56.8021-1.07902 1
GRID     45407   1       5.33472-60.    -1.14361 1
GRID     45408   1       4.95367-60.    -1.18233 1
GRID     45414   1       6.95353-34.715 -.946701 1
GRID     45415   1       6.64385-36.5868-.988448 1
GRID     45416   1       6.34196-38.6391-1.02728 1
GRID     45421   1       6.74148-51.5555-.975496 1
GRID     45426   1       7.29989-35.9926-.897714 1
GRID     45427   1       7.64955-37.1538-.845793 1
GRID     45428   1       8.00207-38.2132-.79093  1
GRID     45429   1       8.06533-40.8934-.780814 1
GRID     45441   1       8.30482-36.5868-.741788 1
GRID     45447   1       8.98505-47.2695-.624528 1
GRID     45448   1       9.35712-47.7837-.556361 1
GRID     45449   1       9.48044-49.9771-.533132 1
GRID     45463   1       9.6173 -46.1021-.506988 1
GRID     45494   1       6.049  -40.8934-.707216 1
GRID     45495   1       6.13244-44.3916-.697157 1
GRID     45496   1       6.23808-47.7837-.684223 1
GRID     45497   1       6.36481-51.0517-.668408 1
GRID     45498   1       6.13244-53.8216-.697157 1
GRID     45499   1       5.91551-56.8021-.723019 1
GRID     45500   1       5.33472-60.    -.787613 1
GRID     45501   1       4.95367-60.    -.826329 1
GRID     45507   1       6.95353-34.715 -.590701 1
GRID     45508   1       6.64385-36.5868-.632448 1
GRID     45509   1       6.34196-38.6391-.671283 1
GRID     45514   1       6.74148-51.5555-.619496 1
GRID     45519   1       7.29989-35.9926-.541714 1
GRID     45520   1       7.64955-37.1538-.489793 1
GRID     45521   1       8.00207-38.2132-.43493  1
GRID     45522   1       8.06533-40.8934-.424814 1
GRID     45534   1       8.30482-36.5868-.385788 1
GRID     45540   1       8.98505-47.2695-.268527 1
GRID     45541   1       9.35712-47.7837-.200361 1
GRID     45542   1       9.48044-49.9771-.177132 1
GRID     45556   1       9.6173 -46.1021-.150988 1
GRID     45587   1       6.049  -40.8934-.351216 1
GRID     45588   1       6.13244-44.3916-.341157 1
GRID     45589   1       6.23808-47.7837-.328223 1
GRID     45590   1       6.36481-51.0517-.312408 1
GRID     45591   1       6.13244-53.8216-.341157 1
GRID     45592   1       5.91551-56.8021-.367019 1
GRID     45593   1       5.33472-60.    -.431613 1
GRID     45594   1       4.95367-60.    -.470329 1
GRID     45600   1       6.95353-34.715 -.234701 1
GRID     45601   1       6.64385-36.5868-.276448 1
GRID     45602   1       6.34196-38.6391-.315283 1
GRID     45607   1       6.74148-51.5555-.263496 1
GRID     45612   1       7.29989-35.9926-.185714 1
GRID     45613   1       7.64955-37.1538-.133793 1
GRID     45614   1       8.00207-38.2132-.07893  1
GRID     45615   1       8.06533-40.8934-.068814 1
GRID     45627   1       8.30482-36.5868-.029788 1
GRID     45633   1       8.98505-47.2695 .087473 1
GRID     45634   1       9.35712-47.7837 .15564  1
GRID     45635   1       9.48044-49.9771 .178869 1
GRID     45649   1       9.6173 -46.1021 .205012 1
GRID     45680   1       6.049  -40.8934 .004784 1
GRID     45681   1       6.13244-44.3916 .014843 1
GRID     45682   1       6.23808-47.7837 .027777 1
GRID     45683   1       6.36481-51.0517 .043592 1
GRID     45684   1       6.13244-53.8216 .014843 1
GRID     45685   1       5.91551-56.8021-.011019 1
GRID     45686   1       5.33472-60.    -.075613 1
GRID     45687   1       4.95367-60.    -.114329 1
GRID     45693   1       6.95353-34.715  .121299 1
GRID     45694   1       6.64385-36.5868 .079552 1
GRID     45695   1       6.34196-38.6391 .040717 1
GRID     45700   1       6.74148-51.5555 .092504 1
GRID     45705   1       7.29989-35.9926 .170286 1
GRID     45706   1       7.64955-37.1538 .222207 1
GRID     45707   1       8.00207-38.2132 .27707  1
GRID     45708   1       8.06533-40.8934 .287186 1
GRID     45720   1       8.30482-36.5868 .326212 1
GRID     45726   1       8.98505-47.2695 .443473 1
GRID     45727   1       9.35712-47.7837 .51164  1
GRID     45728   1       9.48044-49.9771 .534868 1
GRID     45742   1       9.6173 -46.1021 .561012 1
GRID     45743   1       7.85788 49.1066-1.16968 1
GRID     45744   1       7.85788 49.1066-.813677 1
GRID     45746   1       7.85788 49.1066-.457677 1
GRID     45748   1       7.85788 49.1066-.101677 1
GRID     45750   1       7.85788 49.1066 .254323 1
GRID     45753   1       9.444   56.9955-.896029 1
GRID     45754   1       9.444   56.9955-.540029 1
GRID     45756   1       9.444   56.9955-.184029 1
GRID     45758   1       9.444   56.9955 .171971 1
GRID     45760   1       9.444   56.9955 .527971 1
GRID     45763   1       9.444   63.0045-.896029 1
GRID     45764   1       9.444   63.0045-.540029 1
GRID     45766   1       9.444   63.0045-.184029 1
GRID     45768   1       9.444   63.0045 .171971 1
GRID     45770   1       9.444   63.0045 .527971 1
GRID     45773   1       7.85788 70.8934-1.16968 1
GRID     45774   1       7.85788 70.8934-.813677 1
GRID     45776   1       7.85788 70.8934-.457677 1
GRID     45778   1       7.85788 70.8934-.101677 1
GRID     45780   1       7.85788 70.8934 .254323 1
GRID     45783   1       6.93    68.2132-1.30594 1
GRID     45784   1       6.93    68.2132-.949941 1
GRID     45786   1       6.93    68.2132-.593941 1
GRID     45788   1       6.93    68.2132-.237941 1
GRID     45790   1       6.93    68.2132 .118059 1
GRID     45793   1       6.93    51.7868-1.30594 1
GRID     45794   1       6.93    51.7868-.949941 1
GRID     45796   1       6.93    51.7868-.593941 1
GRID     45798   1       6.93    51.7868-.237941 1
GRID     45800   1       6.93    51.7868 .118059 1
GRID     45805   1       9.47343 58.08  -.890463 1
GRID     45806   1       7.67796 49.2789-1.19746 1
GRID     45808   1       7.08185 50.9748-1.28484 1
GRID     45810   1       7.08185 69.0252-1.28484 1
GRID     45812   1       7.67798 70.7212-1.19746 1
GRID     45814   1       9.47343 61.92  -.890463 1
GRID     46115   1       8.84796 171.557-1.00492 1
GRID     46119   1       9.24    171.787-.934124 1
GRID     46121   1       9.10639 173.183-.958612 1
GRID     46122   1       9.24983 174.453-.93231  1
GRID     46125   1       8.54058 170.285-1.05822 1
GRID     46416   1       9.54912 176.037-.520064 1
GRID     46418   1       9.6173  172.111-.506991 1
GRID     46462   1       9.54912 176.037-.164064 1
GRID     46464   1       9.6173  172.111-.150991 1
GRID     46508   1       9.54912 176.037 .191936 1
GRID     46510   1       9.6173  172.111 .205009 1
GRID     46554   1       9.54912 176.037 .547936 1
GRID     46556   1       9.6173  172.111 .561009 1
GRID     46618   1       8.63062 173.413-1.04281 1
GRID     46619   1       9.3313  175.39 -.917183 1
GRID     46620   1       8.14156 169.383-1.12452 1
GRID     46825   1       6.85892 180.   -1.31566 1
GRID     46826   1       7.23997 180.   -1.26236 1
GRID     46827   1       7.62102 180.   -1.20612 1
GRID     46828   1       8.00207 180.   -1.14693
GRID     46829   1       7.81852-177.581-1.17581 1
GRID     46830   1       7.43782-177.457-1.23353 1
GRID     46831   1       7.64955-175.05 -1.20179 1
GRID     46832   1       7.05717-177.32 -1.2883  1
GRID     46833   1       7.26999-174.791-1.25804 1
GRID     46834   1       7.49616-172.411-1.22488 1
GRID     46835   1       7.11862-172.006-1.27965 1
GRID     46836   1       6.74493-173.615-1.33104 1
GRID     46837   1       6.74148-171.556-1.3315  1
GRID     46838   1       6.55594-176.848-1.35595 1
GRID     46841   1       6.50207-180.   -1.36292 1
GRID     46861   1       6.8695 -166.102-1.31422 1
GRID     46863   1       6.98478-169.107-1.29838 1
GRID     46864   1       7.23997-166.826-1.26236 1
GRID     46865   1       7.3675 -169.845-1.24387 1
GRID     46866   1       7.73449-170.174-1.18881 1
GRID     46867   1       7.61149-167.48 -1.20757 1
GRID     46868   1       7.98391-168.073-1.14982 1
GRID     46870   1       8.63062-173.413-1.04281 1
GRID     46871   1       9.10656-173.184-.958579 1
GRID     46872   1       9.3881 -173.947-.906555 1
GRID     46875   1       9.24   -171.787-.934124 1
GRID     46876   1       9.48044-169.977-.889135 1
GRID     46877   1       8.84796-171.557-1.00492 1
GRID     46878   1       9.10545-169.56 -.958782 1
GRID     46881   1       8.73098-169.107-1.02544 1
GRID     46883   1       8.54057-170.285-1.05823 1
GRID     46884   1       8.3571 -168.613-1.08911 1
GRID     46885   1       8.14145-169.383-1.12454 1
GRID     46886   1       8.2522 -173.11 -1.10646 1
GRID     46887   1       7.87403-172.777-1.16715 1
GRID     46888   1       8.02925-175.285-1.1426  1
GRID     46889   1       8.40907-175.498-1.08044 1
GRID     46890   1       8.19924-177.693-1.11514 1
GRID     46891   1       8.38313 180.   -1.08477 1
GRID     46892   1       8.58   -177.796-1.0515  1
GRID     46893   1       8.76418-180.   -1.01964 1
GRID     46894   1       8.78899-175.693-1.0153  1
GRID     46895   1       8.96078-177.89 -.984874 1
GRID     46896   1       9.14523-180.   -.951529 1
GRID     46897   1       9.34158-177.976-.915263 1
GRID     46898   1       9.3313 -175.39 -.917183 1
GRID     46926   1       9.50207-180.   -.885028 1
GRID     46943   1       7.49616 172.411-1.22488 1
GRID     46944   1       7.64955 175.05 -1.20179 1
GRID     46945   1       7.81852 177.581-1.17581 1
GRID     46946   1       6.74148 171.556-1.3315  1
GRID     46947   1       7.11862 172.006-1.27965 1
GRID     46948   1       7.73449 170.174-1.18881 1
GRID     46949   1       9.34159 177.976-.915263 1
GRID     46953   1       7.05717 177.32 -1.2883  1
GRID     46954   1       7.26999 174.791-1.25804 1
GRID     46955   1       7.43782 177.457-1.23353 1
GRID     46957   1       6.55593 176.849-1.35595 1
GRID     46959   1       6.74487 173.616-1.33104 1
GRID     46961   1       7.3675  169.845-1.24387 1
GRID     46962   1       6.98478 169.107-1.29838 1
GRID     46967   1       8.78899 175.693-1.0153  1
GRID     46968   1       8.96078 177.89 -.984874 1
GRID     46969   1       8.58    177.796-1.0515  1
GRID     46970   1       8.40907 175.498-1.08044 1
GRID     46971   1       8.19924 177.693-1.11514 1
GRID     46972   1       8.02925 175.285-1.1426  1
GRID     46973   1       8.2522  173.11 -1.10646 1
GRID     46974   1       7.87403 172.777-1.16715 1
GRID     46976   1       8.00207 180.   -.79093  1
GRID     46977   1       9.14523-180.   -.595529 1
GRID     46979   1       8.00207 180.   -.43493  1
GRID     46980   1       9.14523-180.   -.239529 1
GRID     46982   1       8.00207 180.   -.07893  1
GRID     46983   1       9.14523-180.    .116471 1
GRID     46985   1       8.00207 180.    .27707  1
GRID     46986   1       9.14523-180.    .472471 1
GRID     46991   1       7.81852 177.581-.819813 1
GRID     46992   1       7.64955 175.05 -.845793 1
GRID     46993   1       7.49616 172.411-.868876 1
GRID     46994   1       7.11862 172.006-.923654 1
GRID     46995   1       6.74148 171.556-.975496 1
GRID     46996   1       7.73449 170.174-.832805 1
GRID     46997   1       9.34159 177.976-.559263 1
GRID     47002   1       7.81852 177.581-.463813 1
GRID     47003   1       7.64955 175.05 -.489793 1
GRID     47004   1       7.49616 172.411-.512876 1
GRID     47005   1       7.11862 172.006-.567654 1
GRID     47006   1       6.74148 171.556-.619496 1
GRID     47007   1       7.73449 170.174-.476805 1
GRID     47008   1       9.34159 177.976-.203263 1
GRID     47013   1       7.81852 177.581-.107813 1
GRID     47014   1       7.64955 175.05 -.133793 1
GRID     47015   1       7.49616 172.411-.156876 1
GRID     47016   1       7.11862 172.006-.211654 1
GRID     47017   1       6.74148 171.556-.263496 1
GRID     47018   1       7.73449 170.174-.120804 1
GRID     47019   1       9.34159 177.976 .152737 1
GRID     47024   1       7.81852 177.581 .248187 1
GRID     47025   1       7.64955 175.05  .222207 1
GRID     47026   1       7.49616 172.411 .199124 1
GRID     47027   1       7.11862 172.006 .144346 1
GRID     47028   1       6.74148 171.556 .092504 1
GRID     47029   1       7.73449 170.174 .235196 1
GRID     47030   1       9.34159 177.976 .508737 1
GRID     47040   1       6.74148-171.556-.975496 1
GRID     47041   1       7.11862-172.006-.923654 1
GRID     47042   1       7.49616-172.411-.868876 1
GRID     47043   1       7.64955-175.05 -.845793 1
GRID     47044   1       7.81852-177.581-.819813 1
GRID     47050   1       7.98391-168.073-.793818 1
GRID     47051   1       7.73449-170.174-.832805 1
GRID     47053   1       8.61378-166.711-.689707 1
GRID     47054   1       8.98505-167.27 -.624528 1
GRID     47056   1       9.48044-169.977-.533135 1
GRID     47057   1       9.6173 -172.111-.506991 1
GRID     47059   1       9.54912-176.037-.520064 1
GRID     47060   1       9.34158-177.976-.559263 1
GRID     47061   1       8.76418-180.   -.663645 1
GRID     47062   1       8.38313 180.   -.728772 1
GRID     47076   1       6.74148-171.556-.619496 1
GRID     47077   1       7.11862-172.006-.567654 1
GRID     47078   1       7.49616-172.411-.512876 1
GRID     47079   1       7.64955-175.05 -.489793 1
GRID     47080   1       7.81852-177.581-.463813 1
GRID     47086   1       7.98391-168.073-.437818 1
GRID     47087   1       7.73449-170.174-.476805 1
GRID     47089   1       8.61378-166.711-.333707 1
GRID     47090   1       8.98505-167.27 -.268527 1
GRID     47092   1       9.48044-169.977-.177135 1
GRID     47093   1       9.6173 -172.111-.150991 1
GRID     47095   1       9.54912-176.037-.164064 1
GRID     47096   1       9.34158-177.976-.203263 1
GRID     47097   1       8.76418-180.   -.307645 1
GRID     47098   1       8.38313 180.   -.372772 1
GRID     47112   1       6.74148-171.556-.263496 1
GRID     47113   1       7.11862-172.006-.211654 1
GRID     47114   1       7.49616-172.411-.156876 1
GRID     47115   1       7.64955-175.05 -.133793 1
GRID     47116   1       7.81852-177.581-.107813 1
GRID     47122   1       7.98391-168.073-.081818 1
GRID     47123   1       7.73449-170.174-.120804 1
GRID     47125   1       8.61378-166.711 .022294 1
GRID     47126   1       8.98505-167.27  .087473 1
GRID     47128   1       9.48044-169.977 .178865 1
GRID     47129   1       9.6173 -172.111 .205009 1
GRID     47131   1       9.54912-176.037 .191936 1
GRID     47132   1       9.34158-177.976 .152737 1
GRID     47133   1       8.76418-180.    .048356 1
GRID     47134   1       8.38313 180.   -.016772 1
GRID     47148   1       6.74148-171.556 .092504 1
GRID     47149   1       7.11862-172.006 .144346 1
GRID     47150   1       7.49616-172.411 .199124 1
GRID     47151   1       7.64955-175.05  .222207 1
GRID     47152   1       7.81852-177.581 .248187 1
GRID     47158   1       7.98391-168.073 .274182 1
GRID     47159   1       7.73449-170.174 .235196 1
GRID     47161   1       8.61378-166.711 .378294 1
GRID     47162   1       8.98505-167.27  .443473 1
GRID     47164   1       9.48044-169.977 .534865 1
GRID     47165   1       9.6173 -172.111 .561009 1
GRID     47167   1       9.54912-176.037 .547936 1
GRID     47168   1       9.34158-177.976 .508737 1
GRID     47169   1       8.76418-180.    .404356 1
GRID     47170   1       8.38313 180.    .339228 1
GRID     47187   1       7.85788 169.107-1.16968 1
GRID     47188   1       7.85788 169.107-.813677 1
GRID     47189   1       7.85788 169.107-.457677 1
GRID     47190   1       7.85788 169.107-.101677 1
GRID     47191   1       7.85788 169.107 .254323 1
GRID     47193   1       9.444   176.996-.896029 1
GRID     47194   1       9.444   176.996-.540029 1
GRID     47195   1       9.444   176.996-.184029 1
GRID     47196   1       9.444   176.996 .171971 1
GRID     47197   1       9.444   176.996 .527971 1
GRID     47199   1       9.444  -176.996-.896029 1
GRID     47200   1       9.444  -176.996-.540029 1
GRID     47201   1       9.444  -176.996-.184029 1
GRID     47202   1       9.444  -176.996 .171971 1
GRID     47203   1       9.444  -176.996 .527971 1
GRID     47205   1       7.85788-169.107-1.16968 1
GRID     47206   1       7.85788-169.107-.813677 1
GRID     47207   1       7.85788-169.107-.457677 1
GRID     47208   1       7.85788-169.107-.101677 1
GRID     47209   1       7.85788-169.107 .254323 1
GRID     47211   1       6.93   -171.787-1.30594 1
GRID     47212   1       6.93   -171.787-.949941 1
GRID     47213   1       6.93   -171.787-.593941 1
GRID     47214   1       6.93   -171.787-.237941 1
GRID     47215   1       6.93   -171.787 .118059 1
GRID     47217   1       6.93    171.787-1.30594 1
GRID     47218   1       6.93    171.787-.949941 1
GRID     47219   1       6.93    171.787-.593941 1
GRID     47220   1       6.93    171.787-.237941 1
GRID     47221   1       6.93    171.787 .118059 1
GRID     47223   1       9.47343 178.08 -.890463 1
GRID     47224   1       7.67796 169.279-1.19746 1
GRID     47225   1       7.08185 170.975-1.28484 1
GRID     47226   1       7.08185-170.975-1.28484 1
GRID     47227   1       7.67798-169.279-1.19746 1
GRID     47228   1       9.47343-178.08 -.890463 1
GRID     47529   1       8.84796-68.4426-1.00492 1
GRID     47530   1       9.10545-70.4403-.958782 1
GRID     47533   1       9.24   -68.2132-.934124 1
GRID     47535   1       9.10639-66.8175-.958612 1
GRID     47536   1       9.24983-65.5466-.93231  1
GRID     47538   1       9.54912-63.9632-.876064 1
GRID     47539   1       8.54058-69.7146-1.05822 1
GRID     47540   1       8.35711-71.3871-1.08911 1
GRID     47542   1       8.73098-70.8934-1.02544 1
GRID     47543   1       8.98505-72.7305-.980527 1
GRID     47823   1       7.98391-71.927 -.793818 1
GRID     47830   1       9.54912-63.9632-.520064 1
GRID     47832   1       9.6173 -67.8889-.506991 1
GRID     47833   1       9.48044-70.0229-.533135 1
GRID     47835   1       8.98505-72.7305-.624528 1
GRID     47836   1       8.61378-73.2891-.689707 1
GRID     47869   1       7.98391-71.927 -.437818 1
GRID     47876   1       9.54912-63.9632-.164064 1
GRID     47878   1       9.6173 -67.8889-.150991 1
GRID     47879   1       9.48044-70.0229-.177135 1
GRID     47881   1       8.98505-72.7305-.268527 1
GRID     47882   1       8.61378-73.2891-.333707 1
GRID     47915   1       7.98391-71.927 -.081818 1
GRID     47922   1       9.54912-63.9632 .191936 1
GRID     47924   1       9.6173 -67.8889 .205009 1
GRID     47925   1       9.48044-70.0229 .178865 1
GRID     47927   1       8.98505-72.7305 .087473 1
GRID     47928   1       8.61378-73.2891 .022294 1
GRID     47961   1       7.98391-71.927  .274182 1
GRID     47968   1       9.54912-63.9632 .547936 1
GRID     47970   1       9.6173 -67.8889 .561009 1
GRID     47971   1       9.48044-70.0229 .534865 1
GRID     47973   1       8.98505-72.7305 .443473 1
GRID     47974   1       8.61378-73.2891 .378294 1
GRID     48032   1       8.63062-66.5868-1.04281 1
GRID     48033   1       9.3313 -64.6101-.91718  1
GRID     48034   1       8.14156-70.6168-1.12452 1
GRID     48036   1       9.72241-61.9451-.842647 1
GRID     48239   1       6.85892-60.    -1.31566 1
GRID     48240   1       7.23997-60.    -1.26236 1
GRID     48241   1       7.62102-60.    -1.20612 1
GRID     48242   1       8.00207-60.    -1.14693
GRID     48243   1       7.81852-57.581 -1.17581 1
GRID     48244   1       7.43782-57.4571-1.23353 1
GRID     48245   1       7.64955-55.0504-1.20179 1
GRID     48246   1       7.05717-57.3198-1.2883  1
GRID     48247   1       7.26999-54.7913-1.25804 1
GRID     48248   1       7.49616-52.4109-1.22488 1
GRID     48249   1       7.11862-52.0059-1.27965 1
GRID     48250   1       6.74493-53.615 -1.33104 1
GRID     48252   1       6.55594-56.8483-1.35595 1
GRID     48255   1       6.50207-60.    -1.36292 1
GRID     48259   1       7.87403-45.4361-1.16715 1
GRID     48260   1       8.2434 -46.1021-1.10791 1
GRID     48279   1       7.3675 -49.8445-1.24387 1
GRID     48280   1       7.73449-50.1736-1.18881 1
GRID     48281   1       7.61149-47.4802-1.20757 1
GRID     48282   1       7.98391-48.073 -1.14982 1
GRID     48284   1       8.63062-53.4132-1.04281 1
GRID     48285   1       9.10656-53.1838-.958579 1
GRID     48286   1       9.3881 -53.9468-.906555 1
GRID     48287   1       9.76711-54.1825-.833926 1
GRID     48289   1       9.24   -51.7868-.934124 1
GRID     48291   1       8.84796-51.5575-1.00492 1
GRID     48295   1       8.73098-49.1066-1.02544 1
GRID     48297   1       8.54057-50.2853-1.05823 1
GRID     48298   1       8.3571 -48.6129-1.08911 1
GRID     48299   1       8.14145-49.383 -1.12454 1
GRID     48300   1       8.2522 -53.1097-1.10647 1
GRID     48301   1       7.87403-52.7771-1.16715 1
GRID     48302   1       8.02925-55.285 -1.1426  1
GRID     48303   1       8.40907-55.4984-1.08044 1
GRID     48304   1       8.19924-57.6934-1.11514 1
GRID     48305   1       8.38313-60.    -1.08478 1
GRID     48306   1       8.58   -57.7958-1.0515  1
GRID     48307   1       8.76418-60.    -1.01964 1
GRID     48308   1       8.78899-55.6934-1.0153  1
GRID     48309   1       8.96078-57.8895-.984874 1
GRID     48310   1       9.14523-60.    -.951532 1
GRID     48311   1       9.34158-57.9756-.915263 1
GRID     48312   1       9.3313 -55.3899-.91718  1
GRID     48313   1       9.54912-56.0368-.876061 1
GRID     48339   1       9.90733-60.    -.806299 1
GRID     48340   1       9.50207-60.    -.885028 1
GRID     48341   1       9.72241-58.0549-.842647 1
GRID     48342   1       10.1033-58.1282-.767015 1
GRID     48343   1       9.92929-56.1887-.801937 1
GRID     48344   1       10.3095-56.3295-.724785 1
GRID     48357   1       7.49616-67.5891-1.22488 1
GRID     48358   1       7.64955-64.9496-1.20179 1
GRID     48359   1       7.81852-62.419 -1.17581 1
GRID     48361   1       7.11862-67.9941-1.27965 1
GRID     48362   1       7.73449-69.8264-1.18881 1
GRID     48363   1       9.34158-62.0245-.915263 1
GRID     48367   1       7.05717-62.6802-1.2883  1
GRID     48368   1       7.26999-65.2087-1.25804 1
GRID     48369   1       7.43782-62.5429-1.23353 1
GRID     48370   1       6.296  -63.0045-1.38903 1
GRID     48371   1       6.55593-63.1515-1.35595 1
GRID     48372   1       6.51141-65.8175-1.36171 1
GRID     48373   1       6.74487-66.3843-1.33104 1
GRID     48375   1       7.36751-70.1555-1.24387 1
GRID     48381   1       8.78899-64.3066-1.0153  1
GRID     48382   1       8.96078-62.1105-.984874 1
GRID     48383   1       8.58   -62.2042-1.0515  1
GRID     48384   1       8.40907-64.5016-1.08044 1
GRID     48385   1       8.19924-62.3066-1.11514 1
GRID     48386   1       8.02925-64.715 -1.1426  1
GRID     48387   1       8.2522 -66.8903-1.10646 1
GRID     48388   1       7.87403-67.2229-1.16715 1
GRID     48390   1       8.00207-60.    -.790927 1
GRID     48391   1       9.14523-60.    -.595532 1
GRID     48393   1       8.00207-60.    -.434927 1
GRID     48394   1       9.14523-60.    -.239532 1
GRID     48396   1       8.00207-60.    -.078927 1
GRID     48397   1       9.14523-60.     .116468 1
GRID     48399   1       8.00207-60.     .277073 1
GRID     48400   1       9.14523-60.     .472468 1
GRID     48402   1       6.13244-66.1784-1.05316 1
GRID     48405   1       7.81852-62.419 -.819813 1
GRID     48406   1       7.64955-64.9496-.845793 1
GRID     48407   1       7.49616-67.5891-.868876 1
GRID     48408   1       7.11862-67.9941-.923654 1
GRID     48409   1       6.74148-68.4445-.975496 1
GRID     48410   1       7.73449-69.8264-.832805 1
GRID     48411   1       9.34158-62.0245-.559263 1
GRID     48413   1       6.13244-66.1784-.697157 1
GRID     48416   1       7.81852-62.419 -.463813 1
GRID     48417   1       7.64955-64.9496-.489793 1
GRID     48418   1       7.49616-67.5891-.512876 1
GRID     48419   1       7.11862-67.9941-.567654 1
GRID     48420   1       6.74148-68.4445-.619496 1
GRID     48421   1       7.73449-69.8264-.476805 1
GRID     48422   1       9.34158-62.0245-.203263 1
GRID     48424   1       6.13244-66.1784-.341157 1
GRID     48427   1       7.81852-62.419 -.107813 1
GRID     48428   1       7.64955-64.9496-.133793 1
GRID     48429   1       7.49616-67.5891-.156876 1
GRID     48430   1       7.11862-67.9941-.211654 1
GRID     48431   1       6.74148-68.4445-.263496 1
GRID     48432   1       7.73449-69.8264-.120804 1
GRID     48433   1       9.34158-62.0245 .152737 1
GRID     48435   1       6.13244-66.1784 .014843 1
GRID     48438   1       7.81852-62.419  .248187 1
GRID     48439   1       7.64955-64.9496 .222207 1
GRID     48440   1       7.49616-67.5891 .199124 1
GRID     48441   1       7.11862-67.9941 .144346 1
GRID     48442   1       6.74148-68.4445 .092504 1
GRID     48443   1       7.73449-69.8264 .235196 1
GRID     48444   1       9.34158-62.0245 .508737 1
GRID     48455   1       7.11862-52.0059-.923654 1
GRID     48456   1       7.49616-52.4109-.868876 1
GRID     48457   1       7.64955-55.0504-.845793 1
GRID     48458   1       7.81852-57.581 -.819813 1
GRID     48462   1       8.14594-43.5262-.767811 1
GRID     48463   1       8.2434 -46.1021-.75191  1
GRID     48464   1       7.98391-48.073 -.793818 1
GRID     48465   1       7.73449-50.1736-.832805 1
GRID     48467   1       8.61378-46.7109-.689707 1
GRID     48471   1       9.6173 -52.1111-.506991 1
GRID     48472   1       9.76711-54.1825-.477926 1
GRID     48473   1       9.54912-56.0368-.520061 1
GRID     48474   1       9.34158-57.9756-.559263 1
GRID     48475   1       8.76418-60.    -.663645 1
GRID     48476   1       8.38313-60.    -.728775 1
GRID     48479   1       10.1463-54.4006-.402279 1
GRID     48491   1       7.11862-52.0059-.567654 1
GRID     48492   1       7.49616-52.4109-.512876 1
GRID     48493   1       7.64955-55.0504-.489793 1
GRID     48494   1       7.81852-57.581 -.463813 1
GRID     48498   1       8.14594-43.5262-.41181  1
GRID     48499   1       8.2434 -46.1021-.39591  1
GRID     48500   1       7.98391-48.073 -.437818 1
GRID     48501   1       7.73449-50.1736-.476805 1
GRID     48503   1       8.61378-46.7109-.333707 1
GRID     48507   1       9.6173 -52.1111-.150991 1
GRID     48508   1       9.76711-54.1825-.121926 1
GRID     48509   1       9.54912-56.0368-.164061 1
GRID     48510   1       9.34158-57.9756-.203263 1
GRID     48511   1       8.76418-60.    -.307645 1
GRID     48512   1       8.38313-60.    -.372775 1
GRID     48515   1       10.1463-54.4006-.046279 1
GRID     48527   1       7.11862-52.0059-.211654 1
GRID     48528   1       7.49616-52.4109-.156876 1
GRID     48529   1       7.64955-55.0504-.133793 1
GRID     48530   1       7.81852-57.581 -.107813 1
GRID     48534   1       8.14594-43.5262-.05581  1
GRID     48535   1       8.2434 -46.1021-.03991  1
GRID     48536   1       7.98391-48.073 -.081818 1
GRID     48537   1       7.73449-50.1736-.120804 1
GRID     48539   1       8.61378-46.7109 .022294 1
GRID     48543   1       9.6173 -52.1111 .205009 1
GRID     48544   1       9.76711-54.1825 .234074 1
GRID     48545   1       9.54912-56.0368 .191939 1
GRID     48546   1       9.34158-57.9756 .152737 1
GRID     48547   1       8.76418-60.     .048356 1
GRID     48548   1       8.38313-60.    -.016775 1
GRID     48551   1       10.1463-54.4006 .309721 1
GRID     48563   1       7.11862-52.0059 .144346 1
GRID     48564   1       7.49616-52.4109 .199124 1
GRID     48565   1       7.64955-55.0504 .222207 1
GRID     48566   1       7.81852-57.581  .248187 1
GRID     48570   1       8.14594-43.5262 .30019  1
GRID     48571   1       8.2434 -46.1021 .31609  1
GRID     48572   1       7.98391-48.073  .274182 1
GRID     48573   1       7.73449-50.1736 .235196 1
GRID     48575   1       8.61378-46.7109 .378294 1
GRID     48579   1       9.6173 -52.1111 .561009 1
GRID     48580   1       9.76711-54.1825 .590074 1
GRID     48581   1       9.54912-56.0368 .547939 1
GRID     48582   1       9.34158-57.9756 .508737 1
GRID     48583   1       8.76418-60.     .404356 1
GRID     48584   1       8.38313-60.     .339225 1
GRID     48587   1       10.1463-54.4006 .665721 1
GRID     48601   1       7.85788-70.8934-1.16968 1
GRID     48602   1       7.85788-70.8934-.813677 1
GRID     48603   1       7.85788-70.8934-.457677 1
GRID     48604   1       7.85788-70.8934-.101677 1
GRID     48605   1       7.85788-70.8934 .254323 1
GRID     48607   1       9.444  -63.0045-.896029 1
GRID     48608   1       9.444  -63.0045-.540029 1
GRID     48609   1       9.444  -63.0045-.184029 1
GRID     48610   1       9.444  -63.0045 .171971 1
GRID     48611   1       9.444  -63.0045 .527971 1
GRID     48613   1       9.444  -56.9955-.896029 1
GRID     48614   1       9.444  -56.9955-.540029 1
GRID     48615   1       9.444  -56.9955-.184029 1
GRID     48616   1       9.444  -56.9955 .171971 1
GRID     48617   1       9.444  -56.9955 .527971 1
GRID     48619   1       7.85788-49.1066-1.16968 1
GRID     48620   1       7.85788-49.1066-.813677 1
GRID     48621   1       7.85788-49.1066-.457677 1
GRID     48622   1       7.85788-49.1066-.101677 1
GRID     48623   1       7.85788-49.1066 .254323 1
GRID     48625   1       6.93   -51.7868-1.30594 1
GRID     48626   1       6.93   -51.7868-.949941 1
GRID     48627   1       6.93   -51.7868-.593941 1
GRID     48628   1       6.93   -51.7868-.237941 1
GRID     48629   1       6.93   -51.7868 .118059 1
GRID     48631   1       6.93   -68.2132-1.30594 1
GRID     48632   1       6.93   -68.2132-.949944 1
GRID     48633   1       6.93   -68.2132-.593944 1
GRID     48634   1       6.93   -68.2132-.237944 1
GRID     48635   1       6.93   -68.2132 .118056 1
GRID     48637   1       9.47343-61.92  -.890463 1
GRID     48638   1       7.67796-70.7211-1.19746 1
GRID     48639   1       7.08185-69.0252-1.28484 1
GRID     48640   1       7.08185-50.9748-1.28484 1
GRID     48641   1       7.67798-49.2788-1.19746 1
GRID     48642   1       9.47343-58.08  -.890463 1
GRID     50420          -2.57213 6.43498-1.30558 1
GRID     50421          -3.14369 6.105  -1.31422 1
GRID     50423          -3.71524 5.77501-1.31422 1
GRID     50425          -4.28684 5.44499-1.30558 1
GRID     50428          -4.42343 5.49234-1.28403 1
GRID     50429          -2.35425 7.56698-1.1542
GRID     50430          -2.53832 6.61058-1.27962 1
GRID     50431          -5.40851 5.83356-1.14978 1
GRID     50432          -5.14414 7.92003-.895662 1
GRID     50433          -5.00123 8.00254-.892728
GRID     50434          -4.28683 8.415  -.892728
GRID     50435          -2.95319 8.08498-1.04643 1
GRID     50436          -4.28688 8.41497-.539664 1
GRID     50438          -4.28688 8.41497-.183664 1
GRID     50440          -4.28688 8.41497 .172337 1
GRID     50442          -4.28688 8.41497 .528337 1
GRID     50446          -2.57213 6.43498-.949575 1
GRID     50448          -2.57213 6.43498-.593575 1
GRID     50450          -2.57213 6.43498-.237575 1
GRID     50452          -2.57213 6.43498 .118425 1
GRID     50456          -4.28684 5.44499-.949575 1
GRID     50458          -4.28684 5.44499-.593575 1
GRID     50460          -4.28684 5.44499-.237575 1
GRID     50462          -4.28684 5.44499 .118425 1
GRID     50466          -5.14414 7.92003-.539662 1
GRID     50468          -5.14414 7.92003-.183662 1
GRID     50470          -5.14414 7.92003 .172338 1
GRID     50472          -5.14414 7.92003 .528338 1
GRID     50475          -.679811-6.50627-1.35547
GRID     50476          -.476314-7.095  -1.28037 1
GRID     50477          -1.98476-7.78943-1.13676 1
GRID     50478          -4.28684-5.44499-1.30558 1
GRID     50479          -4.28688-8.41497-.895664 1
GRID     50480          -4.42766-8.31046-.897487
GRID     50482          -5.37608-5.82233-1.1542
GRID     50483          -4.813  -8.35442-.856027 1
GRID     50484          -4.28688-8.41497-.539664 1
GRID     50486          -4.28688-8.41497-.183664 1
GRID     50488          -4.28688-8.41497 .172337 1
GRID     50491          -4.28688-8.41497 .528337 1
GRID     50494          -4.28684-5.44499-.949575 1
GRID     50496          -4.28684-5.44499-.593575 1
GRID     50498          -4.28684-5.44499-.237575 1
GRID     50500          -4.28684-5.44499 .118425 1
$ 
$ SEQGP cards from BANDIT
$
SEQGP          1    7241     166    7236       2    7073     164    7069
SEQGP        165    7235     162    7068     161    7178       3    6896
SEQGP        163    6893       4    6734     117    6672     168    6832
SEQGP        124    6833     125    7009     167    7008       5    6732
SEQGP        169    6892       6    6731       9    5721     176    5716
SEQGP         10    5546     174    5542     175    5717     172    5543
SEQGP        171    5650      11    5374     173    5371      12    5205
SEQGP         15    6241     185    6236      16    6073     118    6169
SEQGP        179    5995       7    6059     177    5879     178    5817
SEQGP          8    5880     121    5996     119    5818     183    6069
SEQGP        184    6234     181    6067     180    6233      17    5891
SEQGP        182    5888      18    5726     188    6556      13    6557
SEQGP        186    6390     187    6389      14    6392     191    6553
SEQGP        189    6554     190    6387     194    6230     122    6325
SEQGP        192    6386     193    6231     123    6493     197    5885
SEQGP        195    6060     196    6066      19    5724     198    5886
SEQGP         20    5722     200    6567     202    6569     203    6745
SEQGP        199    6744     201    6402      21    6406      22    6249
SEQGP        204    6905     207    7074     170    7242     205    7077
SEQGP        206    6900     210    6735     208    6897     209    6738
SEQGP        213    6398     211    6559     212    6566      23    6246
SEQGP        214    6400      24    6243      27    5223     220    5218
SEQGP         28    5024     218    5020     219    5216     216    5018
SEQGP        215    5211      29    4824     217    4821      30    4648
SEQGP         38    5748     239    5742      39    5573     223    5551
SEQGP         25    5556     221    5384     222    5379      26    5386
SEQGP        226    5547     224    5549     225    5377     229    5207
SEQGP        227    5375     228    5209      33    4639     232    4814
SEQGP         34    4812     230    5011     231    5013      35    5010
SEQGP         31    4646     233    4819      32    4644     237    5568
SEQGP        238    5740     235    5566     234    5739      40    5401
SEQGP        236    5397      41    5233     242    6082      36    6083
SEQGP        240    5903     241    5902      37    5905     245    6075
SEQGP        243    6078     244    5897     248    5730     246    5894
SEQGP        247    5733     251    5392     249    5558     250    5565
SEQGP         42    5230     252    5395      43    5227      45    6267
SEQGP        257    6265      46    6101     255    6098     256    6263
SEQGP        253    6096      47    5920     254    5918      48    5756
SEQGP         44    6421     258    6250     261    5912     259    6085
SEQGP        260    6092      49    5755     262    5916      50    5753
SEQGP         52    6779     267    6775      53    6599     265    6593
SEQGP        266    6774     263    6592      54    6431     264    6427
SEQGP         55    6275      51    6936     269    6422      56    6273
SEQGP        270    6426     268    6588      57    6272     271    7117
SEQGP        133    7119     134    7286     272    6942     274    6938
SEQGP        127    6788      58    6783     275    6940     273    7115
SEQGP         59    6781      62    4017     281    4011      63    3786
SEQGP        279    3781     280    4009     277    3779     276    3998
SEQGP         64    3559     278    3554      65    3350      68    4674
SEQGP        293    4670      69    4470     284    4443      60    4452
SEQGP        282    4227     283    4217      61    4229     287    4438
SEQGP        285    4440     286    4213     291    4467     292    4668
SEQGP        289    4465     288    4664      70    4245     290    4243
SEQGP         71    4028     296    5036      66    5040     294    4842
SEQGP        295    4838      67    4844     299    5029     297    5032
SEQGP        298    4833     302    4655     300    4830     301    4658
SEQGP        305    4235     303    4454     304    4461      72    4027
SEQGP        306    4241      73    4025      76    5255     312    5249
SEQGP         77    5058     310    5052     311    5248     308    5051
SEQGP        307    5244      78    4858     309    4854      79    4682
SEQGP        315    5582      74    5587     313    5415     314    5411
SEQGP         75    5416     318    5579     316    5581     317    5410
SEQGP        321    5238     319    5407     320    5242     324    4849
SEQGP        322    5043     323    5047      80    4680     325    4853
SEQGP         81    4679      84    5781     331    5775      85    5608
SEQGP        329    5602     330    5773     327    5598     326    5767
SEQGP         86    5436     328    5432      87    5270     334    6110
SEQGP         82    6112     332    5934     333    5930      83    5936
SEQGP        337    6107     335    6108     336    5928     340    5762
SEQGP        338    5927     339    5764     343    5422     341    5588
SEQGP        342    5593      88    5268     344    5425      89    5259
SEQGP        138    6291     345    6285     139    6122     136    6605
SEQGP        346    6439     137    6445     349    6601     347    6603
SEQGP        348    6437     352    6278     350    6434     351    6282
SEQGP        355    5942     353    6115     354    6120     356    5944
SEQGP        128    5789     140    5951      90    5783      93    3382
SEQGP        362    3376      94    3141     360    3135     361    3375
SEQGP        358    3134     357    3371      95    2908     359    2904
SEQGP         96    2711     104    4053     381    4047     105    3825
SEQGP        365    3800      91    3805     363    3580     364    3576
SEQGP         92    3581     368    3797     366    3799     367    3575
SEQGP        371    3365     369    3572     370    3369      99    2700
SEQGP        374    2895     100    2894     372    3126     373    3128
SEQGP        101    3123      97    2709     375    2903      98    2708
SEQGP        379    3819     380    4043     377    3815     376    4039
SEQGP        106    3599     378    3595     107    3392     384    4479
SEQGP        102    4485     382    4259     383    4255     103    4265
SEQGP        387    4476     385    4477     386    4253     390    4034
SEQGP        388    4252     389    4036     393    3587     391    3806
SEQGP        392    3811     108    3390     394    3591     109    3386
SEQGP        129    4715     400    4708     146    4517     398    4510
SEQGP        399    4706     396    4507     395    4698     147    4295
SEQGP        397    4288     403    5074     110    5076     401    4878
SEQGP        402    4874     111    4880     406    5062     404    5072
SEQGP        405    4872     409    4689     407    4863     408    4695
SEQGP        412    4271     410    4492     411    4497     413    4283
SEQGP        112    4074     113    4067     414    5610     141    5616
SEQGP        142    5442     417    5273     415    5439     416    5277
SEQGP        143    5285     145    4891     418    5079     144    5089
SEQGP        126    7179     120    5651     135    6948     130    4081
SEQGP        420    2068     160    1862     159    1871     419    2062
SEQGP        421    2079     426    2494     424    2492     425    2263
SEQGP        422    2261     423    2491     132    2086     115    2279
SEQGP        427    2267     114    2500     155    2527     154    2739
SEQGP        428    2727     157    2285     156    2307     429    2512
SEQGP        432    2718     430    2507     431    2724     435    3145
SEQGP        433    2913     434    2918     438    3151     436    3149
SEQGP        437    2920     439    2930     153    2748     131    2941
SEQGP        116    3161     440    3403     152    3175     151    3414
SEQGP        443    3835     441    3610     442    3619     150    3422
SEQGP        148    3851     444    3843     149    3627     158    1877
SEQGP        445    1679     446    1685     447    7124     448    7289
SEQGP        449    6947     450    6787     451    6610     452    6444
SEQGP        453    6289     454    6128     455    5950     456    5788
SEQGP        457    5614     458    5448     459    5286     460    5090
SEQGP        461    4892     462    4716     463    4518     464    4296
SEQGP        465    4082     466    3852     467    3628     468    3431
SEQGP        469    3212     470    3176     471    2942     472    2750
SEQGP        473    2538     474    2528     475    2308     476    2107
SEQGP        477    2087     478    1884     479    8573     604    8407
SEQGP        480    8577     602    8416     603    8254     600    8257
SEQGP        599    8075     481    8585     601    8418     482    8587
SEQGP        558    8191     606    8194     564    8023     565    8017
SEQGP        605    8193     483    8522     607    8369     484    8367
SEQGP        488    7699     612    7510     489    7572     610    7392
SEQGP        611    7333     490    7393     493    8711     621    8550
SEQGP        494    8553     559    7701     615    7512     486    7700
SEQGP        613    7511     614    7334     487    7698     561    7513
SEQGP        560    7335     619    8385     620    8383     617    8218
SEQGP        616    8217     495    8386     618    8219     624    8552
SEQGP        491    8712     622    8551     623    8384     492    8710
SEQGP        627    8225     625    8387     626    8220     630    7867
SEQGP        562    7868     628    8050     629    8046     563    8051
SEQGP        633    7863     631    7864     632    8044     634    8045
SEQGP        496    7866     499    9441     640    9318     500    9421
SEQGP        638    9298     639    9197     636    9174     635    9048
SEQGP        501    9299     637    9175     502    9178     485    9039
SEQGP        643    9040     497    9191     641    9192     642    9046
SEQGP        498    9317     646    8734     608    8733     644    8886
SEQGP        645    8888     609    8880     649    8747     647    8739
SEQGP        648    8893     652    8863     650    8864     651    9022
SEQGP        503    9026     653    9023     504    8866     505    9759
SEQGP        659    9655     506    9755     657    9652     658    9550
SEQGP        655    9548     654    9436     507    9756     656    9653
SEQGP        508    9757     664    9439     662    9314     663    9435
SEQGP        660    9311     661    9189     509    9654     665    9549
SEQGP        510    9553     514    9183     676    9033     515    9066
SEQGP        668    7760     670    7399     669    7573     674    8912
SEQGP        675    8874     672    8764     671    8721     516    8913
SEQGP        673    8765     679    9027     512    9179     677    9029
SEQGP        678    8869     513    9180     682    8713     680    8867
SEQGP        681    8715     683    8554     685    8392     684    8560
SEQGP        686    8609     519    9840     692    9745     520    9746
SEQGP        690    9642     691    9641     688    9537     687    9536
SEQGP        521    9643     689    9538     522    9544     695    9743
SEQGP        517    9838     693    9744     694    9640     518    9839
SEQGP        698    9534     696    9639     697    9535     701    9301
SEQGP        699    9422     700    9423     704    9303     702    9302
SEQGP        703    9424     523    9430     705    9425     524    9307
SEQGP        527   10216     711   10173     528   10211     709   10166
SEQGP        710   10111     707   10103     706   10019     529   10167
SEQGP        708   10104     530   10107     511   10022     714   10021
SEQGP        525   10113     712   10112     713   10020     526   10174
SEQGP        717    9850     666    9853     715    9935     716    9934
SEQGP        667    9938     720    9851     718    9849     719    9933
SEQGP        723    9924     721    9923     722   10010     531   10014
SEQGP        724   10011     532    9926     726   10250     573   10253
SEQGP        574   10221     725   10220     727   10271     732   10217
SEQGP        730   10175     731   10219     728   10176     729   10114
SEQGP        567   10281     533   10270     733   10248     534   10247
SEQGP        537    9569     739    9459     538    9460     737    9340
SEQGP        738    9339     735    9220     734    9219     539    9342
SEQGP        736    9222     742    9456     535    9567     740    9457
SEQGP        741    9336     536    9568     745    9212     743    9334
SEQGP        744    9214     746    9067     748    8919     747    9073
SEQGP        749    9074     542   10110     755   10018     543   10028
SEQGP        753    9944     754    9932     751    9863     750    9848
SEQGP        544    9945     752    9864     545    9868     758   10015
SEQGP        540   10108     756   10017     757    9929     541   10109
SEQGP        761    9841     759    9927     760    9843     764    9650
SEQGP        762    9747     763    9754     767    9671     765    9670
SEQGP        766    9773     546    9777     768    9774     547    9673
SEQGP        578   10266     769   10244     579   10245     576   10278
SEQGP        770   10265     577   10279     773   10242     771   10264
SEQGP        772   10243     776   10169     774   10212     775   10213
SEQGP        779   10171     777   10170     778   10214     780   10215
SEQGP        568   10188     580   10229     548   10172     569    9715
SEQGP        786    9702     586    9622     784    9605     785    9681
SEQGP        782    9579     781    9578     587    9515     783    9497
SEQGP        789    9778     553    9869     787    9780     788    9676
SEQGP        554    9799     792    9570     790    9674     791    9572
SEQGP        793    9461     795    9349     794    9468     796    9469
SEQGP        798    9471     555    9380     556    9355     797    9352
SEQGP        549    9235     799   10117     581   10133     582   10044
SEQGP        802    9949     800   10029     801    9965     583    9975
SEQGP        585    9809     803    9887     584    9896     566    8015
SEQGP        575   10273     570    9400     595    8328     594    8484
SEQGP        804    8327     597    7968     596    8151     805    8148
SEQGP        808    8646     593    8519     571    8678     806    8483
SEQGP        557    8799     807    8645     552    8796     809    8944
SEQGP        592    8833     591    8976     550    9090     812    9236
SEQGP        810    9092     811    9122     590    8998     551    8938
SEQGP        588    9286     813    9263     589    9146     598    7445
SEQGP        814    7443     815   10251     816   10222     817   10272
SEQGP        818   10282     819   10283     820   10280     821   10267
SEQGP        822   10257     823   10228     824   10187     825   10131
SEQGP        826   10054     827    9976     828    9897     829    9810
SEQGP        830    9716     831    9623     832    9516     833    9401
SEQGP        834    9287     835    9147     836    9008     837    8858
SEQGP        838    8836     839    8679     840    8532     841    8378
SEQGP        842    8329     843    8149     844    7969     572    7807
SEQGP        845    7811     994    6688     846    6689     996    6508
SEQGP        995    6507     992    6678     991    6499     847    6852
SEQGP        993    6840     848    7017     949    7019     998    6842
SEQGP        955    6843     956    6680     997    6679     849    7016
SEQGP        999    6841     850    7018     853    8061    1002    8062
SEQGP        854    8239    1000    8240    1001    8073     855    8406
SEQGP        858    7529    1011    7525     859    7712     950    7531
SEQGP       1005    7719     851    7718    1003    7887    1004    7889
SEQGP        852    7878     952    7672     951    7851    1009    7711
SEQGP       1010    7524    1007    7708    1006    7522     860    7879
SEQGP       1008    7875     861    8059    1014    7187     856    7189
SEQGP       1012    7345    1013    7344     857    7348    1017    7190
SEQGP       1015    7186    1016    7343    1020    7530     953    7350
SEQGP       1018    7349    1019    7523     954    7191    1023    7877
SEQGP       1021    7710    1022    7709     862    8058    1024    7876
SEQGP        863    8060     864    7367    1025    7365     865    7546
SEQGP       1026    7028    1027    7363     866    7545    1028    7364
SEQGP        867    7544     870    8571    1034    8567     871    8728
SEQGP       1032    8727    1033    8566    1030    8724    1029    8564
SEQGP        872    8881    1031    8877     873    9037     878    8091
SEQGP       1053    8087     879    8268    1037    8232     868    8236
SEQGP       1035    8399    1036    8398     869    8402    1040    8237
SEQGP       1038    8231    1039    8397    1043    8572    1041    8403
SEQGP       1042    8565    1046    8879    1044    8726    1045    8725
SEQGP        874    9036    1047    8878     875    9038    1051    8267
SEQGP       1052    8086    1049    8253    1048    8072     880    8425
SEQGP       1050    8415     881    8584    1056    7733     876    7735
SEQGP       1054    7902    1055    7901     877    7905    1059    7717
SEQGP       1057    7732    1058    7886    1062    8064    1060    7880
SEQGP       1061    8066    1065    8409    1063    8243    1064    8246
SEQGP        882    8581    1066    8411     883    8579     885    7564
SEQGP       1072    7560     886    7748    1070    7746    1071    7558
SEQGP       1068    7745    1067    7557     887    7915    1069    7914
SEQGP        888    8099    1073    7379    1074    7377     884    7383
SEQGP       1075    7376    1078    7548    1076    7369    1077    7551
SEQGP       1081    7907    1079    7737    1080    7740     889    8096
SEQGP       1082    7910     890    8093     891    7389    1083    7386
SEQGP        892    7568    1084    7382     893    7567    1085    7385
SEQGP        894    7563    1086    6613     964    6457     965    6449
SEQGP       1087    6619     958    6631     895    6800     898    9443
SEQGP       1090    9438     899    9552    1088    9551    1089    9437
SEQGP        900    9656     903    9058    1100    9052     904    9200
SEQGP       1093    9187     896    9188    1091    9313    1092    9312
SEQGP        897    9320    1094    9186    1098    9199    1099    9051
SEQGP       1096    9196    1095    9045     905    9323    1097    9322
SEQGP        906    9446    1103    8742     901    8746    1101    8895
SEQGP       1102    8894     902    8900    1106    8732    1104    8741
SEQGP       1105    8885    1109    9042    1107    8882    1108    9044
SEQGP       1112    9319    1110    9194    1111    9195     907    9445
SEQGP       1113    9321     908    9442     911    8608    1119    8602
SEQGP        912    8760    1117    8758    1118    8600    1115    8757
SEQGP       1114    8599     913    8909    1116    8908     914    9065
SEQGP       1122    8277     909    8281    1120    8435    1121    8433
SEQGP        910    8440    1125    8273    1123    8275    1124    8432
SEQGP       1128    8592    1126    8426    1127    8594    1131    8905
SEQGP       1129    8752    1130    8754     915    9063    1132    8906
SEQGP        916    9062     919    7633    1138    7818     920    7822
SEQGP       1136    7978    1137    7974    1134    8154    1133    8108
SEQGP        921    7984    1135    8158     922    8163    1141    7756
SEQGP        917    7627    1139    7814    1140    7922     918    7631
SEQGP       1144    7751    1142    7752    1143    7921    1147    8100
SEQGP       1145    7917    1146    8103    1150    8441    1148    8282
SEQGP       1149    8285     923    8336    1151    8332     924    8487
SEQGP        969    6980    1152    7138     970    7145     967    6809
SEQGP       1153    6967     968    6824    1154    7136    1157    7450
SEQGP       1155    7295    1156    7302    1160    7460    1158    7458
SEQGP       1159    7304    1161    7306     959    7320     971    7156
SEQGP        925    7462     928    9772    1167    9768     929    9860
SEQGP       1165    9859    1166    9765    1163    9858    1162    9764
SEQGP        930    9942    1164    9941     931   10027     936    9103
SEQGP       1186    9244     937    9248    1170    9558     926    9560
SEQGP       1168    9663    1169    9660     927    9666    1173    9554
SEQGP       1171    9555    1172    9659    1176    9760    1174    9657
SEQGP       1175    9762    1179    9939    1177    9854    1178    9856
SEQGP        932   10026    1180    9940     933   10024    1184    9361
SEQGP       1185    9357    1182    9474    1181    9455     938    9367
SEQGP       1183    9478     939    9483    1189    9211     934    9097
SEQGP       1187    9240    1188    9333     935    9101    1192    9207
SEQGP       1190    9210    1191    9331    1195    9447    1193    9324
SEQGP       1194    9449    1198    9667    1196    9561    1197    9563
SEQGP        940    9586    1199    9582     941    9683     960    8175
SEQGP       1205    8346     977    8353    1203    8502    1204    8500
SEQGP       1201    8659    1200    8657     978    8509    1202    8661
SEQGP       1208    8342     942    8166    1206    8344    1207    8498
SEQGP        943    8168    1211    8649    1209    8493    1210    8655
SEQGP       1214    8947    1212    8802    1213    8809    1217    8957
SEQGP       1215    8955    1216    8811    1218    8813     944    8815
SEQGP        945    8959    1219    7636     972    7475     973    7643
SEQGP       1222    7986    1220    7825    1221    7828     974    7653
SEQGP        976    7995    1223    7988     975    7837     957    6500
SEQGP        966    6469     961    8668    1224   10178     990   10179
SEQGP       1225   10120    1228   10116    1226   10115    1227   10177
SEQGP        963   10038     947   10033    1229   10119     946   10032
SEQGP        986    9794     985    9693    1230    9788     988    9956
SEQGP        987    9882    1231    9876    1234    9951    1232    9954
SEQGP       1233    9874    1237    9784    1235    9872    1236    9786
SEQGP       1240    9592    1238    9686    1239    9691    1241    9594
SEQGP        984    9601     962    9492     948    9486    1242    9369
SEQGP        983    9375     982    9254    1245    9106    1243    9251
SEQGP       1244    9110     981    9118     979    8826    1246    8962
SEQGP        980    8972     989   10125    1247   10183    1248    6323
SEQGP       1249    6320    1250    6474    1251    6632    1252    6655
SEQGP       1253    6825    1254    6981    1255    6999    1256    7158
SEQGP       1257    7321    1258    7476    1259    7498    1260    7660
SEQGP       1261    7838    1262    7996    1263    8176    1264    8354
SEQGP       1265    8510    1266    8669    1267    8827    1268    8973
SEQGP       1269    9119    1270    9260    1271    9373    1272    9491
SEQGP       1273    9600    1274    9699    1275    9792    1276    9881
SEQGP       1277    9961    1278   10037    1279   10124    1280    4372
SEQGP       1407    4576    1281    4578    1405    4748    1406    4747
SEQGP       1403    4945    1402    4937    1282    4751    1404    4946
SEQGP       1283    4947    1361    5481    1409    5301    1367    5302
SEQGP       1368    5135    1408    5134    1284    5143    1410    5142
SEQGP       1285    5309    1289    6011    1415    6184    1290    6186
SEQGP       1413    6340    1414    6339    1291    6343    1294    4957
SEQGP       1424    5152    1295    5155    1362    6003    1418    6175
SEQGP       1287    6009    1416    6183    1417    6331    1288    6010
SEQGP       1364    6176    1363    6332    1422    5319    1423    5317
SEQGP       1420    5491    1419    5489    1296    5323    1421    5493
SEQGP       1427    5144    1292    4952    1425    5150    1426    5312
SEQGP       1293    4955    1430    5487    1428    5310    1429    5488
SEQGP       1433    5831    1365    5825    1431    5664    1432    5665
SEQGP       1366    5658    1436    5833    1434    5832    1435    5666
SEQGP       1437    5668    1297    5670    1298    5835    1301    3724
SEQGP       1443    3949    1302    3952    1441    4164    1442    4162
SEQGP       1439    4384    1438    4380    1303    4168    1440    4386
SEQGP       1304    4388    1286    3716    1446    3942    1299    3720
SEQGP       1444    3947    1445    4157    1300    3722    1449    4374
SEQGP       1411    4152    1447    4154    1448    4377    1412    3940
SEQGP       1452    4753    1450    4580    1451    4583    1455    4759
SEQGP       1453    4756    1454    4587    1305    4591    1456    4589
SEQGP       1306    4761    1307    2415    1462    2635    1308    2637
SEQGP       1460    2829    1461    2828    1458    3060    1457    3055
SEQGP       1309    2832    1459    3061    1310    3062    1467    3501
SEQGP       1465    3499    1466    3296    1463    3294    1464    3497
SEQGP       1311    3302    1468    3301    1312    3506    1316    4396
SEQGP       1472    4601    1317    4603    1471    6013    1474    4593
SEQGP       1314    4393    1473    4599    1315    4395    1475    4959
SEQGP       1320    3071    1481    3305    1321    3314    1479    3510
SEQGP       1480    3509    1477    3732    1476    3731    1322    3520
SEQGP       1478    3733    1323    3744    1484    3303    1318    3064
SEQGP       1482    3304    1483    3508    1319    3065    1487    3728
SEQGP       1485    3507    1486    3730    1490    4170    1488    3955
SEQGP       1489    3957    1493    4173    1491    4172    1492    3958
SEQGP       1324    3960    1494    3959    1325    4174    1328    1786
SEQGP       1500    1992    1329    1996    1498    2192    1499    2189
SEQGP       1496    2424    1495    2423    1330    2198    1497    2427
SEQGP       1331    2432    1313    1782    1503    1988    1326    1781
SEQGP       1501    1989    1502    2188    1327    1784    1506    2416
SEQGP       1469    2183    1504    2184    1505    2418    1470    1985
SEQGP       1509    2833    1507    2638    1508    2640    1512    2839
SEQGP       1510    2834    1511    2645    1332    2647    1513    2646
SEQGP       1333    2840    1515    1169    1376     965    1377     961
SEQGP       1514    1162    1516    1174    1521    1574    1519    1572
SEQGP       1520    1381    1517    1379    1518    1570    1370    1181
SEQGP       1334    1392    1522    1386    1335    1578    1338    3748
SEQGP       1528    3974    1339    3978    1526    4190    1527    4189
SEQGP       1524    4413    1523    4412    1340    4196    1525    4414
SEQGP       1341    4419    1531    3972    1336    3745    1529    3973
SEQGP       1530    4188    1337    3746    1534    4397    1532    4175
SEQGP       1533    4399    1535    4604    1536    4606    1537    4618
SEQGP       1342    4620    1538    4619    1345    2442    1544    2659
SEQGP       1346    2663    1542    2852    1543    2850    1540    3081
SEQGP       1539    3077    1347    2858    1541    3083    1348    3088
SEQGP       1547    2653    1343    2438    1545    2657    1546    2846
SEQGP       1344    2440    1550    3072    1548    2841    1549    3074
SEQGP       1553    3521    1551    3315    1552    3316    1556    3524
SEQGP       1554    3522    1555    3318    1349    3324    1557    3322
SEQGP       1350    3527    1381    1649    1558    1802    1382    1856
SEQGP       1379    1398    1559    1591    1380    1461    1562    1791
SEQGP       1560    1586    1561    1799    1565    2205    1563    2002
SEQGP       1564    2008    1568    2211    1566    2209    1567    2010
SEQGP       1569    2064    1371    2076    1383    1869    1351    2265
SEQGP       1354    4427    1570    4630    1355    4634    1572    4626
SEQGP       1352    4423    1571    4628    1353    4425    1372    3158
SEQGP       1578    3388    1389    3399    1576    3593    1577    3589
SEQGP       1574    3813    1573    3759    1390    3606    1575    3817
SEQGP       1581    3330    1356    3143    1579    3384    1580    3535
SEQGP       1357    3147    1584    3752    1582    3530    1583    3756
SEQGP       1587    4199    1585    3982    1586    3985    1590    4203
SEQGP       1588    4201    1589    3987    1591    4041    1358    4045
SEQGP       1359    4257    1592    2497    1384    2276    1385    2504
SEQGP       1595    2910    1593    2714    1594    2721    1386    2522
SEQGP       1388    2927    1596    2916    1387    2736    1369    4938
SEQGP       1378     971    1373    3832    1597    6385    1401    6297
SEQGP       1598    6229    1375    6058    1360    6057    1399    5878
SEQGP       1398    5769    1599    5715    1397    5596    1602    4482
SEQGP       1600    4685    1601    4488    1394    4692    1393    4504
SEQGP       1391    4064    1603    4262    1392    4280    1400    6135
SEQGP       1604    6301    1605     847    1606     838    1607    1019
SEQGP       1608    1182    1609    1266    1610    1462    1611    1650
SEQGP       1612    1677    1613    1882    1614    2077    1615    2277
SEQGP       1616    2324    1617    2532    1618    2737    1619    2928
SEQGP       1620    3159    1621    3400    1622    3607    1623    3833
SEQGP       1624    4065    1625    4281    1626    4505    1627    4704
SEQGP       1374    5068    1395    5265    1629    5264    1628    5067
SEQGP       1396    5423    1630    5430    1631    5594    1632    5768
SEQGP       1633    5931    1634    5986    1635    6148    1785    3461
SEQGP       1636    3255    1787    3460    1786    3688    1783    3689
SEQGP       1782    3916    1637    3258    1784    3463    1638    3272
SEQGP       1740    3858    1789    3640    1746    3642    1747    3862
SEQGP       1788    3860    1639    3428    1790    3636    1640    3635
SEQGP       1643    4359    1793    4563    1644    4370    1791    4575
SEQGP       1792    4737    1645    4371    1648    3023    1802    3264
SEQGP       1649    3262    1741    4363    1796    4565    1641    4361
SEQGP       1794    4564    1795    4738    1642    4360    1743    4567
SEQGP       1742    4739    1800    3467    1801    3470    1798    3695
SEQGP       1797    3698    1650    3466    1799    3693    1651    3692
SEQGP       1805    3273    1646    3032    1803    3270    1804    3475
SEQGP       1647    3028    1808    3704    1806    3477    1807    3702
SEQGP       1811    4141    1744    4143    1809    3929    1810    3927
SEQGP       1745    3931    1814    4137    1812    4138    1813    3923
SEQGP       1652    3920    1815    3921    1653    4136    1817    2380
SEQGP       1819    2147    1820    2381    1816    2602    1654    1946
SEQGP       1655    2145    1818    2377    1656    2375    1824    3031
SEQGP       1822    3017    1823    2798    1821    2785    1827    2795
SEQGP       1825    2799    1826    2603    1657    2597    1828    2599
SEQGP       1658    2793    1661    3040    1834    3280    1662    3045
SEQGP       1832    3286    1833    3485    1830    3490    1829    3710
SEQGP       1663    3048    1831    3288    1664    3050    1669    2371
SEQGP       1853    2592    1670    2392    1837    3708    1659    3482
SEQGP       1835    3483    1836    3709    1660    3279    1840    4148
SEQGP       1838    3934    1839    3935    1843    4150    1841    4149
SEQGP       1842    3936    1846    3714    1844    3938    1845    3712
SEQGP       1665    3291    1847    3492    1666    3496    1851    2613
SEQGP       1852    2787    1849    2807    1848    3019    1671    2393
SEQGP       1850    2614    1672    2394    1856    2594    1667    2373
SEQGP       1854    2593    1855    2788    1668    2372    1859    3021
SEQGP       1857    2789    1858    3020    1862    3465    1860    3261
SEQGP       1861    3260    1865    3039    1863    3278    1864    3038
SEQGP       1673    2616    1866    2808    1674    2811    1868    1729
SEQGP       1870    1509    1871    1511    1867    1731    1675    1310
SEQGP       1676    1508    1869    1727    1677    1726    1875    2142
SEQGP       1873    1944    1874    1940    1872    1736    1878    2139
SEQGP       1876    2140    1877    1938    1678    1935    1879    1936
SEQGP       1679    2138    1881     124    1755      35    1756     123
SEQGP       1880     228    1882      36    1749       5    1685      39
SEQGP       1885     125    1883     230    1686     128    1884     231
SEQGP       1680     232    1689    2407    1888    2628    1690    2411
SEQGP       1886    2633    1887    2823    1691    2413    1694    1758
SEQGP       1898    1966    1695    1762    1891    3051    1687    2820
SEQGP       1889    2821    1890    3053    1688    2627    1892    3292
SEQGP       1896    1971    1897    2167    1894    2172    1893    2401
SEQGP       1696    1764    1895    1973    1697    1766    1901    2396
SEQGP       1692    2162    1899    2164    1900    2399    1693    1964
SEQGP       1904    2813    1902    2618    1903    2621    1907    2818
SEQGP       1905    2816    1906    2623    1910    2406    1908    2626
SEQGP       1909    2405    1698    1975    1911    2173    1699    2176
SEQGP       1702    1117    1917    1340    1703    1121    1915    1345
SEQGP       1916    1536    1913    1541    1912    1752    1704    1123
SEQGP       1914    1347    1705    1125    1920    1750    1700    1533
SEQGP       1918    1534    1919    1751    1701    1339    1923    2158
SEQGP       1921    1958    1922    1959    1926    2160    1924    2159
SEQGP       1925    1960    1929    1756    1927    1962    1928    1754
SEQGP       1706    1350    1930    1543    1707    1547    1710     495
SEQGP       1936     679    1711     520    1934     705    1935     873
SEQGP       1932     901    1931    1084    1712     521    1933     706
SEQGP       1713     522    1683     493    1939     675    1708     492
SEQGP       1937     676    1938     871    1709     494    1940     872
SEQGP       1684     876    1942    1086    1941    1085    1945    1507
SEQGP       1943    1309    1944    1308    1948    1116    1946    1338
SEQGP       1947    1115    1714     708    1949     902    1715     905
SEQGP       1760      43    1950     129    1761     132    1758       6
SEQGP       1951      40    1759       8    1954     131    1952      41
SEQGP       1953     130    1957     353    1682     356    1955     236
SEQGP       1956     234    1681     237    1960     355    1958     354
SEQGP       1959     235    1961     238    1750     248    1762     141
SEQGP       1716     359    1719    1138    1967    1363    1720    1151
SEQGP       1965    1373    1966    1560    1963    1566    1962    1773
SEQGP       1721    1152    1964    1374    1722    1153    1727     531
SEQGP       1986     717    1728     535    1970    1769    1717    1557
SEQGP       1968    1558    1969    1771    1718    1362    1973    2177
SEQGP       1971    1977    1972    1979    1976    2181    1974    2179
SEQGP       1975    1981    1979    1778    1977    1984    1978    1777
SEQGP       1723    1375    1980    1567    1724    1571    1984     722
SEQGP       1985     915    1982     920    1981    1131    1729     536
SEQGP       1983     723    1730     537    1989    1127    1725     912
SEQGP       1987     913    1988    1129    1726     716    1992    1548
SEQGP       1990    1352    1991    1354    1995    1552    1993    1550
SEQGP       1994    1356    1998    1137    1996    1361    1997    1136
SEQGP       1731     725    1999     921    1732     924    1751     166
SEQGP       2005     271    1768     167    2003     273    2004     388
SEQGP       2001     390    2000     527    1769     168    2002     274
SEQGP       2008     523    1733     385    2006     386    2007     525
SEQGP       1734     270    2011     906    2009     709    2010     711
SEQGP       2014     910    2012     908    2013     713    2017     530
SEQGP       2015     715    2016     529    2018     391    1735     276
SEQGP       1736     394    2019     382    1763     296    1764     267
SEQGP       2022     384    2020     383    2021     268    1765     163
SEQGP       1767     165    2023     269    1766     164    1748    4088
SEQGP       1757       4    1752     169    2024     951    1781     773
SEQGP       2025     760    2028    1156    2026    1378    2027    1158
SEQGP       1754     583    1738     752    2029     945    1737     944
SEQGP       1777     437    1776     431    2030     566    1779     570
SEQGP       1778     438    2031     571    2034     941    2032     751
SEQGP       2033     748    2037     938    2035     939    2036     744
SEQGP       2040     554    2038     741    2039     559    2041     421
SEQGP       1775     316    1753     306    1739     415    2042     397
SEQGP       1774     300    1773     279    2045     395    2043     396
SEQGP       2044     278    1772     173    1770     170    2046     277
SEQGP       1771     171    1780     593    2047     772    2048      34
SEQGP       2049      69    2050       3    2051       1    2052       2
SEQGP       2053       7    2054      42    2055      70    2056     158
SEQGP       2057     212    2058     218    2059     214    2060     162
SEQGP       2061      75    2062      76    2063      77    2064      78
SEQGP       2065      79    2066      80    2067      81    2068      82
SEQGP       2069     172    2070     215    2071     220    2072     222
SEQGP       2073     315    2074     335    2075     341    2076     457
SEQGP       2077     470    2078     474    2079     592    2080    5204
SEQGP       2208    5372    2206    5471    2081    5206    2207    5289
SEQGP       2082    5122    2166    5126    2210    5291    2172    5293
SEQGP       2173    5473    2209    5472    2083    5123    2211    5290
SEQGP       2084    5124    2087    3903    2214    3904    2088    3675
SEQGP       2212    3679    2213    3908    2089    3451    2092    4541
SEQGP       2223    4542    2093    4336    2167    4555    2217    4352
SEQGP       2085    4351    2215    4121    2216    4125    2086    4120
SEQGP       2169    4522    2168    4301    2221    4337    2222    4544
SEQGP       2219    4339    2218    4546    2094    4103    2220    4104
SEQGP       2095    3894    2226    4923    2090    4922    2224    4719
SEQGP       2225    4721    2091    4718    2229    4926    2227    4924
SEQGP       2228    4723    2232    4553    2170    4729    2230    4727
SEQGP       2231    4551    2171    4929    2235    4117    2233    4347
SEQGP       2234    4344    2096    3898    2236    4113    2097    3901
SEQGP       2100    3989    2242    4204    2101    3988    2240    4205
SEQGP       2241    4428    2238    4430    2237    4635    2102    3990
SEQGP       2239    4208    2103    3991    2245    4637    2098    4433
SEQGP       2243    4429    2244    4636    2099    4207    2248    5007
SEQGP       2246    4811    2247    4809    2251    5009    2249    5008
SEQGP       2250    4810    2254    4643    2252    4813    2253    4638
SEQGP       2104    4210    2255    4434    2105    4437    2106    3346
SEQGP       2258    3552    2256    3767    2107    3344    2257    3541
SEQGP       2108    3335    2261    3992    2259    4211    2260    3994
SEQGP       2109    3539    2262    3764    2110    3763    2115    3340
SEQGP       2275    3547    2116    3348    2265    3669    2111    3668
SEQGP       2263    3440    2264    3443    2112    3439    2268    3674
SEQGP       2266    3672    2267    3445    2269    3446    2273    3556
SEQGP       2274    3774    2271    3663    2270    3891    2117    3355
SEQGP       2272    3435    2278    3996    2113    3766    2276    3772
SEQGP       2277    4003    2114    3546    2281    4335    2279    4215
SEQGP       2280    4101    2284    3893    2282    4102    2283    3892
SEQGP       2285    3665    2287    3437    2286    3664    2288    3436
SEQGP       2120    2665    2294    2859    2121    2664    2292    2860
SEQGP       2293    3090    2290    3092    2289    3331    2122    2666
SEQGP       2291    2863    2123    2667    2297    3333    2118    3095
SEQGP       2295    3091    2296    3332    2119    2862    2300    3760
SEQGP       2298    3538    2299    3536    2303    3762    2301    3761
SEQGP       2302    3537    2306    3339    2304    3540    2305    3334
SEQGP       2124    2865    2307    3096    2125    3099    2128    2051
SEQGP       2313    2251    2129    2050    2311    2249    2312    2480
SEQGP       2309    2450    2308    2674    2130    2048    2310    2217
SEQGP       2131    2015    2316    2699    2126    2485    2314    2482
SEQGP       2315    2697    2127    2253    2319    3106    2317    2892
SEQGP       2318    2872    2322    3100    2320    3102    2321    2868
SEQGP       2325    2668    2323    2866    2324    2670    2132    2215
SEQGP       2326    2447    2133    2446    2327    1854    2180    1661
SEQGP       2328    1644    2331    2057    2329    2260    2330    2059
SEQGP       2174    1454    2134    1638    2332    1849    2135    1848
SEQGP       2138    2020    2337    2223    2139    2024    2335    2228
SEQGP       2336    2457    2333    2462    2140    2026    2334    2230
SEQGP       2141    2028    2340    2672    2136    2449    2338    2455
SEQGP       2339    2679    2137    2222    2343    3104    2341    2870
SEQGP       2342    2877    2344    3111    2142    2233    2145    1400
SEQGP       2350    1592    2146    1399    2348    1593    2349    1803
SEQGP       2346    1805    2345    2011    2147    1401    2347    1596
SEQGP       2148    1402    2353    2013    2143    1808    2351    1804
SEQGP       2352    2012    2144    1595    2356    2443    2354    2214
SEQGP       2355    2212    2359    2445    2357    2444    2358    2213
SEQGP       2362    2019    2360    2216    2361    2014    2149    1598
SEQGP       2363    1809    2150    1812    2184    1234    2364    1443
SEQGP       2185    1228    2182    1447    2365    1448    2183    1235
SEQGP       2368    1843    2366    1637    2367    1633    2371    1840
SEQGP       2369    1842    2370    1631    2374    1433    2372    1628
SEQGP       2373    1438    2375    1222    2175    1007    2186    1024
SEQGP       2151    1216    2154    1411    2380    1607    2155    1415
SEQGP       2378    1612    2379    1822    2376    1721    2156    1416
SEQGP       2377    1525    2157    1335    2383    2030    2152    1819
SEQGP       2381    1820    2382    2032    2153    1606    2158    1326
SEQGP       2176     789    2389     976    2192     790    2387     978
SEQGP       2388    1189    2385    1191    2384    1407    2193     791
SEQGP       2386     979    2392    1403    2159    1186    2390    1187
SEQGP       2391    1405    2160     975    2395    1813    2393    1599
SEQGP       2394    1601    2398    1817    2396    1815    2397    1603
SEQGP       2401    1410    2399    1605    2400    1409    2402    1192
SEQGP       2161     981    2162    1195    2403    1183    2187    1001
SEQGP       2188     972    2406    1185    2404    1184    2405     973
SEQGP       2189     786    2191     788    2407     974    2190     787
SEQGP       2181    1470    2177     792    2408     229    2205     135
SEQGP       2409     241    2179     258    2164     363    2203     376
SEQGP       2202     447    2410     514    2201     576    2163     488
SEQGP       2411     502    2413    1111    2414     948    2199     768
SEQGP       2178     959    2200     754    2412     896    2165    1160
SEQGP       2415    1198    2198    1011    2197     984    2418    1196
SEQGP       2416    1197    2417     983    2196     796    2194     793
SEQGP       2419     982    2195     794    2204     149    2420      73
SEQGP       2421    1660    2422    1469    2423    1272    2424    1268
SEQGP       2425    1246    2426    1046    2427    1040    2428    1023
SEQGP       2429     852    2430     849    2431     840    2432     785
SEQGP       2433     616    2434     617    2435     618    2436     619
SEQGP       2437     620    2438     621    2439     622    2440     623
SEQGP       2441     795    2442     841    2443     845    2444     836
SEQGP       2445     778    2446     607    2447     577    2448     448
SEQGP       2449     334    2450     259    2451     160    2452    6259
SEQGP       2453    6419    2454    6770    2455    6935    2456    6587
SEQGP       2457    7284    2458    7113    2459    8224    2460    8049
SEQGP       2463    8292    2511    8113    2464    8114    2509    7933
SEQGP       2510    7932    2507    7768    2506    7767    2465    7935
SEQGP       2508    7770    2466    7776    2514    8110    2461    8289
SEQGP       2512    8111    2513    7929    2462    8290    2515    7927
SEQGP       2516    7762    2517    7579    2469    7248    2520    7402
SEQGP       2470    7245    2518    7400    2519    7580    2467    7587
SEQGP       2521    7582    2468    7406    2471    8770    2523    8446
SEQGP       2522    8445    2472    8614    2524    8610    2473    8449
SEQGP       2476    7784    2530    7595    2477    7596    2528    7416
SEQGP       2529    7415    2526    7259    2525    7258    2478    7418
SEQGP       2527    7261    2479    7267    2482    8777    2542    8622
SEQGP       2483    8623    2533    7588    2474    7777    2531    7591
SEQGP       2532    7410    2475    7781    2536    7249    2534    7407
SEQGP       2535    7252    2540    8459    2541    8458    2538    8303
SEQGP       2537    8302    2484    8461    2539    8305    2485    8309
SEQGP       2545    8615    2480    8771    2543    8618    2544    8453
SEQGP       2481    8774    2548    8293    2546    8450    2547    8296
SEQGP       2551    7942    2549    8116    2550    8123    2554    7945
SEQGP       2552    7943    2553    8124    2486    8130    2555    8126
SEQGP       2487    7948    2557    8922    2556    8920    2488    9081
SEQGP       2558    9076    2489    8926    2492    8316    2564    8135
SEQGP       2493    8138    2562    7956    2563    7953    2560    7795
SEQGP       2559    7792    2494    7959    2561    7798    2495    7804
SEQGP       2567    8129    2490    8308    2565    8132    2566    7951
SEQGP       2491    8312    2570    7785    2568    7949    2569    7789
SEQGP       2573    7425    2571    7598    2572    7604    2498    7275
SEQGP       2576    7431    2499    7274    2574    7428    2575    7607
SEQGP       2500    7271    2496    7615    2577    7610    2497    7432
SEQGP       2581    8936    2583    9089    2582    8935    2579    8787
SEQGP       2578    8786    2580    8790    2586    9082    2585    8930
SEQGP       2584    9085    2589    8778    2587    8927    2588    8781
SEQGP       2592    8465    2590    8625    2591    8630    2595    8469
SEQGP       2593    8464    2594    8629    2501    8640    2596    8635
SEQGP       2502    8475    2597    7439    2598    7618    2603    7614
SEQGP       2601    7436    2602    7437    2599    7282    2600    7280
SEQGP       2504    7806    2604    7616    2503    7803    2607    7964
SEQGP       2605    7965    2606    8147    2610    8319    2608    8142
SEQGP       2609    8325    2611    8479    2505    7623    2614    6753
SEQGP       2623    6747    2615    6574    2625    7081    2612    7082
SEQGP       2624    6906    2613    6908    2616    7099    2628    7094
SEQGP       2626    7092    2617    6922    2627    6918    2618    6761
SEQGP       2631    6915    2629    7084    2630    7091    2619    6758
SEQGP       2632    6916    2620    6754    2634    6582    2621    6585
SEQGP       2633    6415    2637    6575    2635    6578    2636    6410
SEQGP       2638    6407    2639    6253    2641    7108    2622    7112
SEQGP       2640    6931    2644    7104    2642    7107    2643    6930
SEQGP       2647    6765    2645    6926    2646    6769    2648    9228
SEQGP       2649    9229    2650    9232    2651    9350    2652    7622
SEQGP       2653    6509    2657    7043    2669    7038    2658    7210
SEQGP       2667    7208    2668    7036    2666    7206    2665    7032
SEQGP       2654    6519    2672    6698    2655    6701    2670    6862
SEQGP       2671    6860    2656    6866    2675    6690    2663    6514
SEQGP       2673    6696    2674    6855    2664    6517    2676    6853
SEQGP       2677    7030    2678    7202    2679    7204    2683    6868
SEQGP       2682    6703    2681    6521    2680    6524    2684    7216
SEQGP       2685    6552    2660    7066    2690    6890    2659    6891
SEQGP       2688    6729    2689    6730    2686    6551    2687    6549
SEQGP       2691    6794    2662    6954    2693    7129    2692    6961
SEQGP       2661    7231    2697    5505    2732    5680    2698    5683
SEQGP       2730    5847    2731    5845    2728    6023    2727    6019
SEQGP       2699    5851    2729    6025    2700    6027    2694    5495
SEQGP       2735    5672    2695    5500    2733    5678    2734    5840
SEQGP       2696    5503    2736    5837    2737    6016    2740    6345
SEQGP       2738    6188    2739    6191    2743    6351    2741    6348
SEQGP       2742    6195    2701    6199    2744    6197    2702    6353
SEQGP       2748    4773    2749    4771    2746    4969    2745    4965
SEQGP       2703    4776    2747    4971    2704    4972    2754    5331
SEQGP       2752    5328    2753    5164    2750    5160    2751    5325
SEQGP       2705    5168    2755    5166    2706    5333    2709    4990
SEQGP       2763    5176    2710    5189    2757    6355    2756    6201
SEQGP       2761    5344    2762    5342    2759    5517    2758    5512
SEQGP       2711    5356    2760    5519    2712    5528    2766    5169
SEQGP       2707    4976    2764    5174    2765    5337    2708    4978
SEQGP       2769    5507    2767    5335    2768    5510    2771    5853
SEQGP       2770    5685    2772    4777    2774    4791    2773    4779
SEQGP       2713    4792    2778    4802    2779    4800    2776    4998
SEQGP       2775    4996    2720    4808    2777    5000    2721    5005
SEQGP       2780    4798    2783    4991    2781    4793    2782    4993
SEQGP       2786    5357    2784    5190    2785    5191    2716    5532
SEQGP       2789    5360    2715    5530    2787    5358    2788    5193
SEQGP       2714    5529    2722    5197    2790    5195    2723    5362
SEQGP       2718    6054    2719    6226    2793    6227    2791    6383
SEQGP       2792    6384    2794    6228    2724    6056    2795    5541
SEQGP       2798    5876    2796    5877    2797    5714    2801    5535
SEQGP       2799    5712    2800    5539    2717    5875    2804    5203
SEQGP       2802    5365    2803    5370    2805    5257    2725    5060
SEQGP       2806    4860    2726    4870    2807    4868    2808    4766
SEQGP       2809    4763    2810    4962    2811    5157    2812    3254
SEQGP       2816    1947    2822    2148    2813    2586    2825    2587
SEQGP       2814    2367    2823    2369    2824    2590    2815    2136
SEQGP       2827    3014    2820    3013    2826    2782    2821    2781
SEQGP       2828    2366    2819    1087    2829    1311    2832    1318
SEQGP       2831    1516    2830    1316    2818    1091    2834    1738
SEQGP       2817    1739    2833    1518    2835    3233    2862    3234
SEQGP       2836    2993    2860    2996    2861    3237    2858    2998
SEQGP       2857    3239    2837    2765    2859    2766    2838    2575
SEQGP       2864    3246    2863    3240    2867    2773    2865    3005
SEQGP       2866    2999    2839    2574    2868    2767    2840    2580
SEQGP       2841    3231    2842    3230    2843    3232    2847    2570
SEQGP       2875    2563    2848    2350    2869    2355    2844    2356
SEQGP       2870    2361    2873    2345    2874    2564    2872    2346
SEQGP       2871    2565    2878    2988    2845    2989    2876    2755
SEQGP       2877    2757    2846    2756    2881    2992    2879    2991
SEQGP       2880    2758    2884    2573    2882    2759    2883    2566
SEQGP       2885    2354    2886    2347    2887    2681    2889    3113
SEQGP       2888    2879    2892    2688    2890    2884    2891    2686
SEQGP       2893    2464    2850    2468    2853    1296    2894    1289
SEQGP       2854    1073    2852    1486    2895    1925    2898    2351
SEQGP       2896    2235    2897    2120    2899    2118    2849    2117
SEQGP       2901    1912    2900    1914    2904    1494    2902    1705
SEQGP       2903    1714    2851    1704    2905    1501    2856    1302
SEQGP       2906     699    2908     669    2907     686    2911    1078
SEQGP       2909     865    2910     884    2855     861    2912    1101
SEQGP       2913    6463    2914    6975    2915    7482    2916    8003
SEQGP       2917    7780    2918    6757    2922    7063    2920    7229
SEQGP       2921    7061    2919    7227    2923    7226    2924    7059
SEQGP       2925    6887    2926    7224    2929    6038    2945    6209
SEQGP       2930    6212    2943    6365    2944    6363    2941    6531
SEQGP       2940    6527    2931    6369    2942    6533    2932    6535
SEQGP       2927    6032    2946    6207    2947    6358    2928    6036
SEQGP       2948    5688    2951    5858    2949    5856    2950    5690
SEQGP       2933    5696    2952    5694    2934    5861    2958    5705
SEQGP       2935    5709    2956    5871    2957    5870    2954    6052
SEQGP       2953    6051    2955    6053    2961    5703    2959    5704
SEQGP       2960    5869    2964    6040    2962    5863    2963    6043
SEQGP       2967    6371    2965    6214    2966    6216    2937    6548
SEQGP       2970    6381    2938    6542    2968    6373    2969    6224
SEQGP       2939    6540    2971    6225    2936    6382    2972    6714
SEQGP       2981    6712    2979    6710    2973    6876    2980    6874
SEQGP       2974    7051    2982    6706    2975    7049    2983    6871
SEQGP       2976    7045    2984    7220    2977    7222    2985    7218
SEQGP       2987    6724    2978    6728    2986    6885    2990    6716
SEQGP       2988    6722    2989    6881    2993    7053    2991    6878
SEQGP       2992    7057    2994    7313    2995    6813    2996    6309
SEQGP       2997    5803    2998    6035    2999    7048    3006     352
SEQGP       3004     357    3005     491    3002     498    3003     496
SEQGP       3000     351    3008     877    3001     678    3009     680
SEQGP       3007     682    3010     674    3011     490    3012     879
SEQGP       3013     350    3015    1918    3033    1919    3016    1709
SEQGP       3031    1715    3032    1926    3029    1720    3028    1929
SEQGP       3017    1495    3030    1500    3018    1301    3034    2124
SEQGP       3035    2129    3014    2123    3036    2132    3037    2114
SEQGP       3019    1911    3038    2122    3020    1910    3039    2115
SEQGP       3021    1917    3043    1068    3044    1290    3041    1069
SEQGP       3040    1291    3042     858    3022     665    3047    1703
SEQGP       3045    1485    3046    1487    3050    1708    3048    1707
SEQGP       3049    1488    3053    1297    3051    1489    3052    1292
SEQGP       3025     668    3056     862    3026     864    3054    1074
SEQGP       3055    1070    3027    1077    3023     664    3057     859
SEQGP       3024     667    3062     485    3060     486    3061     347
SEQGP       3058     348    3059     487    3063     349    3064    1304
SEQGP       3072    1503    3070    1723    3065    1306    3071    1505
SEQGP       3066    1307    3075    1933    3073    2134    3074    1931
SEQGP       3067    1506    3076    1725    3068    1094    3078     671
SEQGP       3069     489    3077     673    3081    1080    3079     867
SEQGP       3080     869    3084    1083    3082    1082    3083     870
SEQGP       3085    1093    3086     429    3087     666    3088    1916
SEQGP       3089    2292    3090    1656    3092    9615    3094   10025
SEQGP       3093    9279    3091   10151    3096    3410    3095    1441
SEQGP      10016    7246   10015    7244   10013    7079   10012    7076
SEQGP      10014    7237   10008    7070   10007    7185   10011    6903
SEQGP      10009    6899   10010    6740   10004    6677   10019    6839
SEQGP      10005    6838   10017    7014   10018    7015   10022    6737
SEQGP      10021    6894   10020    6733   10035    5725   10034    5727
SEQGP      10032    5552   10031    5553   10033    5728   10027    5554
SEQGP      10026    5653   10030    5381   10028    5382   10029    5214
SEQGP      10051    6247   10050    6245   10048    6080   10001    6174
SEQGP      10040    6000   10038    6065   10037    5892   10039    5821
SEQGP      10036    5887   10006    6002   10041    5824   10047    6077
SEQGP      10049    6242   10043    6074   10042    6237   10046    5900
SEQGP      10044    5896   10045    5735   10056    6561   10054    6565
SEQGP      10053    6399   10055    6393   10052    6401   10059    6555
SEQGP      10057    6558   10058    6391   10062    6232   10002    6330
SEQGP      10060    6388   10061    6235   10003    6498   10065    5889
SEQGP      10063    6068   10064    6070   10068    5732   10067    5893
SEQGP      10066    5729   10070    6571   10074    6577   10076    6749
SEQGP      10069    6748   10071    6409   10073    6413   10072    6255
SEQGP      10082    6909   10086    7080   10024    7247   10084    7083
SEQGP      10085    6907   10089    6743   10087    6904   10088    6746
SEQGP      10092    6403   10090    6568   10091    6570   10095    6252
SEQGP      10094    6404   10093    6248   10126    5231   10125    5229
SEQGP      10123    5034   10122    5031   10124    5226   10118    5028
SEQGP      10117    5219   10121    4836   10119    4832   10120    4660
SEQGP      10156    5750   10155    5749   10153    5577   10131    5560
SEQGP      10129    5564   10128    5394   10130    5387   10127    5396
SEQGP      10134    5555   10132    5557   10133    5385   10137    5215
SEQGP      10135    5383   10136    5217   10143    4647   10142    4822
SEQGP      10140    4820   10139    5019   10141    5021   10138    5017
SEQGP      10146    4657   10145    4828   10144    4652   10152    5574
SEQGP      10154    5744   10148    5570   10147    5743   10151    5404
SEQGP      10149    5402   10150    5235   10161    6087   10159    6088
SEQGP      10158    5907   10160    5906   10157    5913   10164    6081
SEQGP      10162    6084   10163    5904   10167    5738   10165    5901
SEQGP      10166    5741   10170    5398   10168    5567   10169    5569
SEQGP      10173    5234   10172    5399   10171    5232   10183    6268
SEQGP      10182    6264   10180    6104   10179    6097   10181    6262
SEQGP      10175    6095   10178    5922   10176    5917   10177    5757
SEQGP      10184    6420   10194    6256   10197    5914   10195    6093
SEQGP      10196    6094   10200    5754   10199    5915   10198    5752
SEQGP      10210    6776   10209    6773   10207    6596   10206    6591
SEQGP      10208    6772   10202    6590   10205    6429   10203    6425
SEQGP      10204    6274   10211    6934   10224    6423   10227    6271
SEQGP      10226    6424   10223    6589   10225    6270   10229    7116
SEQGP      10232    7118   10233    7285   10230    6941   10238    6937
SEQGP      10231    6785   10241    6782   10240    6939   10237    7114
SEQGP      10239    6780   10251    4022   10250    4021   10248    3795
SEQGP      10247    3792   10249    4020   10243    3790   10242    4012
SEQGP      10246    3569   10244    3567   10245    3362   10269    4675
SEQGP      10268    4669   10266    4473   10256    4456   10254    4460
SEQGP      10253    4237   10255    4230   10252    4238   10259    4447
SEQGP      10257    4453   10258    4228   10265    4466   10267    4667
SEQGP      10261    4464   10260    4666   10264    4247   10262    4242
SEQGP      10263    4029   10274    5038   10272    5039   10271    4841
SEQGP      10273    4840   10270    4843   10277    5035   10275    5037
SEQGP      10276    4839   10280    4663   10278    4837   10279    4665
SEQGP      10283    4239   10281    4462   10282    4463   10286    4026
SEQGP      10285    4240   10284    4024   10296    5250   10295    5247
SEQGP      10293    5055   10292    5050   10294    5246   10288    5049
SEQGP      10287    5245   10291    4856   10289    4852   10290    4681
SEQGP      10301    5583   10299    5584   10298    5413   10300    5412
SEQGP      10297    5414   10304    5578   10302    5580   10303    5409
SEQGP      10307    5236   10305    5405   10306    5240   10310    4850
SEQGP      10308    5041   10309    5048   10313    4678   10312    4851
SEQGP      10311    4677   10323    5776   10322    5774   10320    5605
SEQGP      10319    5601   10321    5772   10315    5597   10314    5766
SEQGP      10318    5434   10316    5431   10317    5269   10328    6109
SEQGP      10326    6111   10325    5933   10327    5929   10324    5935
SEQGP      10331    6105   10329    6106   10330    5925   10334    5758
SEQGP      10332    5923   10333    5760   10337    5417   10335    5585
SEQGP      10336    5590   10340    5267   10339    5424   10338    5258
SEQGP      10344    6288   10341    6284   10342    6121   10347    6604
SEQGP      10346    6438   10345    6441   10350    6600   10348    6602
SEQGP      10349    6436   10353    6276   10351    6432   10352    6280
SEQGP      10356    5937   10354    6113   10355    6117   10358    5943
SEQGP      10359    5785   10343    5946   10357    5782   10369    3377
SEQGP      10368    3374   10366    3138   10365    3133   10367    3373
SEQGP      10361    3132   10360    3372   10364    2906   10362    2902
SEQGP      10363    2710   10399    4048   10398    4046   10396    3822
SEQGP      10374    3801   10372    3802   10371    3578   10373    3577
SEQGP      10370    3579   10377    3796   10375    3798   10376    3574
SEQGP      10380    3363   10378    3570   10379    3367   10386    2704
SEQGP      10385    2900   10383    2893   10382    3124   10384    3131
SEQGP      10381    3122   10389    2707   10388    2901   10387    2706
SEQGP      10395    3818   10397    4042   10391    3814   10390    4038
SEQGP      10394    3597   10392    3594   10393    3391   10404    4478
SEQGP      10402    4484   10401    4258   10403    4254   10400    4264
SEQGP      10407    4474   10405    4475   10406    4250   10410    4030
SEQGP      10408    4248   10409    4032   10413    3582   10411    3803
SEQGP      10412    3808   10416    3389   10415    3590   10414    3385
SEQGP      10425    4710   10424    4707   10422    4512   10421    4509
SEQGP      10423    4705   10418    4506   10417    4697   10420    4291
SEQGP      10419    4287   10430    5073   10428    5075   10427    4877
SEQGP      10429    4873   10426    4879   10433    5061   10431    5071
SEQGP      10432    4871   10436    4687   10434    4861   10435    4693
SEQGP      10439    4266   10437    4490   10438    4494   10441    4282
SEQGP      10442    4073   10440    4066   10446    5609   10444    5613
SEQGP      10445    5441   10449    5271   10447    5437   10448    5275
SEQGP      10443    5280   10452    4882   10450    5077   10451    5082
SEQGP      10456    7184   10457    5656   10458    6944   10459    4075
SEQGP      10461    2067   10465    1861   10464    1870   10460    2061
SEQGP      10462    2078   10470    2493   10468    2490   10469    2262
SEQGP      10466    2258   10467    2489   10463    2080   10453    2278
SEQGP      10471    2266   10454    2499   10475    2524   10473    2738
SEQGP      10472    2726   10478    2281   10476    2302   10477    2510
SEQGP      10481    2716   10479    2505   10480    2722   10484    3144
SEQGP      10482    2911   10483    2917   10487    3150   10485    3148
SEQGP      10486    2919   10488    2929   10474    2745   10489    2935
SEQGP      10455    3160   10493    3401   10491    3170   10492    3411
SEQGP      10496    3834   10494    3608   10495    3618   10490    3419
SEQGP      10499    3847   10497    3842   10498    3623   10500    1874
SEQGP      10501    1678   10502    1684   10503    7120   10504    7287
SEQGP      10505    6943   10506    6784   10507    6606   10508    6440
SEQGP      10509    6286   10510    6123   10511    5945   10512    5784
SEQGP      10513    5611   10514    5443   10515    5279   10516    5081
SEQGP      10517    4881   10518    4709   10519    4511   10520    4289
SEQGP      10521    4079   10522    3849   10523    3625   10524    3430
SEQGP      10525    3211   10526    3167   10527    2939   10528    2749
SEQGP      10529    2537   10530    2523   10531    2301   10532    2102
SEQGP      10533    2084   10534    1883   10544    8586   11370    8422
SEQGP      10543    8526   11368    8373   11369    8263   11366    8197
SEQGP      11365    8081   10542    8524   11367    8370   10541    8525
SEQGP      10538    8027   11372    8024   10539    8018   10545    7862
SEQGP      11371    8025   10547    8371   11373    8195   10546    8196
SEQGP      10551    7707   11376    7521   10550    7575   11374    7394
SEQGP      11375    7342   10549    7401   10558    8717   11385    8561
SEQGP      10557    8558   10535    7704   11379    7519   10553    7705
SEQGP      11377    7520   11378    7341   10552    7706   10540    7518
SEQGP      10554    7340   11383    8394   11384    8393   11381    8227
SEQGP      11380    8226   10556    8395   11382    8228   11388    8374
SEQGP      10560    8527   11386    8523   11387    8368   10559    8681
SEQGP      11391    8026   11389    8198   11390    8192   11394    7870
SEQGP      10536    7850   11392    8014   11393    8052   10537    8009
SEQGP      11397    7872   11395    7871   11396    8053   11398    8054
SEQGP      10561    7874   10566    9383   11404    9268   10565    9271
SEQGP      11402    9131   11403    9128   11400    8984   11399    8981
SEQGP      10564    9267   11401    9127   10563    9181   10548    8991
SEQGP      11407    8983   10568    9130   11405    9129   11406    8982
SEQGP      10567    9269   11410    8684   10748    8740   11408    8840
SEQGP      11409    8839   10749    8892   11413    8682   11411    8683
SEQGP      11412    8838   11416    8837   11414    8685   11415    8841
SEQGP      10570    9031   11417    8980   10569    8872   11428    9288
SEQGP      11426    9149   11427    9150   11424    9012   11418    9018
SEQGP      11425    9011   10575    9402   11429    9289   10589    9185
SEQGP      11454    9035   10588    9069   11441    7764   11444    7403
SEQGP      11442    7581   11452    8914   11453    8876   11450    8766
SEQGP      11449    8723   10587    8921   11451    8773   11457    9032
SEQGP      10591    9182   11455    9034   11456    8875   10590    9184
SEQGP      11460    8720   11458    8873   11459    8722   11461    8562
SEQGP      11463    8396   11462    8563   11465    8611   10597    9845
SEQGP      11473    9749   10596    9750   11471    9645   11472    9644
SEQGP      11469    9540   11468    9539   10595    9651   11470    9545
SEQGP      10594    9546   11476    9611   11475    9607   11474    9704
SEQGP      50429    9801   11479    9386   11477    9503   11478    9499
SEQGP      11482    9304   11480    9382   11481    9426   11485    9308
SEQGP      11483    9305   11484    9427   10601    9434   11486    9431
SEQGP      10600    9310   10605   10155   11492   10075   10604   10152
SEQGP      11490   10070   11491   10005   11488   10000   10603   10141
SEQGP      11489   10056   10602   10055   50434   10144   11493   10074
SEQGP      10606   10153   10609    9979   11505    9980   10608    9902
SEQGP      11504    9920   11507   10078   10611   10158   10612   10146
SEQGP      11506   10062   11508   10090   11513   10076   11511   10071
SEQGP      11512   10006   11509   10001   11510   10059   10610   10165
SEQGP      10614   10157   11514   10077   10613   10156   10631    9574
SEQGP      11546    9463   10630    9464   11544    9344   11545    9343
SEQGP      11542    9224   11541    9223   10629    9351   11543    9231
SEQGP      11549    9458   10633    9521   11547    9406   11548    9341
SEQGP      10632    9522   11552    9216   11550    9338   11551    9221
SEQGP      11553    9075   11555    8923   11554    9077   11557    9078
SEQGP      10639   10045   11565    9977   10638    9968   11563    9900
SEQGP      11564    9898   11561    9818   11560    9817   10637    9889
SEQGP      11562    9821   10636    9800   11568    9978   10641    9998
SEQGP      11566    9921   11567    9899   10640    9999   11571    9820
SEQGP      11569    9901   11570    9819   11574    9629   11572    9725
SEQGP      11573    9724   11577    9630   11575    9628   11576    9723
SEQGP      10643    9782   11578    9726   10642    9679   10646   10159
SEQGP      11579   10080   10644   10154   10648   10160   11580   10085
SEQGP      10647   10161   11583   10083   11581   10084   11582   10009
SEQGP      11586   10068   11584   10079   11585   10007   11589   10069
SEQGP      11587   10002   11588   10072   11590   10089   10650   10162
SEQGP      10645   10163   10649   10130   10669    9710   11634    9700
SEQGP      10668    9617   11632    9603   11633    9604   11630    9496
SEQGP      11629    9498   10667    9511   11631    9495   11637    9703
SEQGP      10671    9798   11635    9701   11636    9606   10670    9797
SEQGP      11640    9575   11638    9680   11639    9580   11641    9470
SEQGP      11643    9353   11642    9472   11645    9381   11647    9379
SEQGP      10673    9378   10672    9262   11646    9264   10662    9123
SEQGP      11648   10043   10675   10129   10676   10042   11651    9886
SEQGP      11649    9964   11650    9963   10674    9970   10678    9803
SEQGP      11652    9885   10677    9891   10682    8016   10683   10164
SEQGP      10684    9394   10689    8182   10687    8358   11659    8184
SEQGP      10691    7845   10690    8005   11660    8006   11670    8513
SEQGP      10688    8512   10692    8671   11668    8361   10681    8673
SEQGP      11669    8517   10659    8677   11671    8831   10694    8829
SEQGP      10695    8974   10661    8979   11674    9121   11672    8975
SEQGP      11673    9120   10693    8995   10660    8835   10697    9282
SEQGP      11675    9261   10696    9142   10686    7442   11676    7440
SEQGP      11677   10096   11678   10094   11679   10098   11680   10100
SEQGP      11681   10102   11682   10101   11683   10099   11684   10097
SEQGP      11685   10095   11686   10093   11687   10087   11688   10049
SEQGP      11689    9969   11690    9890   11691    9802   11692    9709
SEQGP      11693    9616   11694    9509   11695    9398   11696    9284
SEQGP      11697    9144   11698    9007   11699    8857   11700    8828
SEQGP      11701    8670   11702    8511   11703    8357   11704    8181
SEQGP      11705    8004   11706    7844   10685    7658   11707    7657
SEQGP      11712    6695   10707    6697   11714    6516   11713    6513
SEQGP      11710    6687   11709    6506   10706    6859   11711    6851
SEQGP      10705    7027   10702    7024   11716    6849   10703    6848
SEQGP      10709    6685   11715    6686   10711    7026   11717    6850
SEQGP      10710    7025   10715    8078   11720    8079   10714    8260
SEQGP      11718    8262   11719    8080   10713    8419   10722    7542
SEQGP      11729    7541   10721    7730   10699    7536   11723    7725
SEQGP      10717    7724   11721    7894   11722    7895   10716    7893
SEQGP      10704    7677   10718    7854   11727    7729   11728    7540
SEQGP      11725    7728   11724    7539   10720    7885   11726    7898
SEQGP      10719    8070   11732    7199   10724    7201   11730    7359
SEQGP      11731    7358   10723    7362   11735    7197   11733    7198
SEQGP      11734    7357   11738    7537   10700    7355   11736    7356
SEQGP      11737    7538   10701    7196   11741    7896   11739    7726
SEQGP      11740    7727   10726    8083   11742    7897   10725    8082
SEQGP      10728    7375   11745    7371   10727    7553   11757    7035
SEQGP      11760    7366   10734    7550   11761    7368   10733    7547
SEQGP      10745    8582   11779    8530   10744    8690   11777    8688
SEQGP      11778    8529   11775    8689   11774    8531   10743    8843
SEQGP      11776    8842   10742    8985   10755    8097   11798    8095
SEQGP      10754    8276   11782    8200   10747    8251   11780    8376
SEQGP      11781    8377   10746    8413   11785    8261   11783    8264
SEQGP      11784    8421   11788    8588   11786    8420   11787    8589
SEQGP      11791    8847   11789    8748   11790    8691   10751    8859
SEQGP      11792    8844   10750    8988   11796    8274   11797    8092
SEQGP      11794    8266   11793    8085   10753    8431   11795    8424
SEQGP      10752    8591   11801    7739   10757    7743   11799    7909
SEQGP      11800    7906   10756    7912   11804    7731   11802    7736
SEQGP      11803    7900   11807    8071   11805    7899   11806    8084
SEQGP      11810    8414   11808    8252   11809    8265   10759    8590
SEQGP      11811    8423   10758    8583   10763    7570   11817    7566
SEQGP      10762    7755   11815    7750   11816    7562   11813    7749
SEQGP      11812    7561   10761    7920   11814    7919   10760    8105
SEQGP      11818    7384   11819    7381   10764    7388   11822    7380
SEQGP      11826    7556   11824    7378   11825    7559   11829    7913
SEQGP      11827    7744   11828    7747   10767    8102   11830    7916
SEQGP      10766    8098   10769    7135   11833    7293   10768    7298
SEQGP      11848    7387   10775    7448   11849    7390   10774    7569
SEQGP      11851    6454   10777    6453   10778    6304   11852    6616
SEQGP      10776    6625   10780    6797   10789    9060   11871    9059
SEQGP      10788    9208   11864    9009   10785    9133   11862    9148
SEQGP      11863    9013   11865    8860   11869    9202   11870    9054
SEQGP      11867    9201   11866    9053   10787    9327   11868    9326
SEQGP      10786    9451   11874    8749   10791    8751   11872    8901
SEQGP      11873    8897   10790    8904   11877    8743   11875    8744
SEQGP      11876    8896   11880    8986   11878    8845   11879    8989
SEQGP      11883    9163   11882    9136   11881    9134   11884    9276
SEQGP      10797    8335   11890    8485   10796    8492   11888    8647
SEQGP      11889    8604   11886    8761   11885    8603   10795    8654
SEQGP      11887    8800   10794    8805   11893    8284   10799    8288
SEQGP      11891    8443   11892    8437   10798    8331   11896    8278
SEQGP      11894    8279   11895    8436   11899    8598   11897    8434
SEQGP      11898    8601   11902    8907   11900    8756   11901    8759
SEQGP      10801    8945   11903    8910   10800    9064   10805    7632
SEQGP      11909    7815   10804    7820   11907    7975   11908    7816
SEQGP      11905    7976   11904    7817   10803    7981   11906    8155
SEQGP      10802    8159   11912    7453   10807    7452   11910    7629
SEQGP      11911    7630   10806    7628   11915    7757   11913    7626
SEQGP      11914    7813   11918    8106   11916    7925   11917    7973
SEQGP      11921    8157   11919    8153   11920    7977   10809    8333
SEQGP      11922    8156   10808    8334   10812    6977   11923    7137
SEQGP      10810    7144   10814    6805   11924    6965   10813    6819
SEQGP      11926    7131   11930    7297   11928    7132   11929    7296
SEQGP      11933    7459   11931    7451   11932    7303   11934    7305
SEQGP      10816    7314   10811    7153   10815    7461   10820    9585
SEQGP      11940    9632   10819    9635   11938    9728   11939    9631
SEQGP      11936    9727   10818    9732   11937    9823   10817    9826
SEQGP      10830    9102   11959    9241   10829    9246   11943    9523
SEQGP      10822    9566   11941    9527   11942    9526   10821    9581
SEQGP      10826    9904   11953    9822   11957    9358   11958    9242
SEQGP      11955    9359   11954    9243   10828    9364   11956    9475
SEQGP      10827    9479   11962    8950   10832    8949   11960    9099
SEQGP      11961    9100   10831    9098   11965    9209   11963    9096
SEQGP      11964    9239   11968    9452   11966    9332   11967    9356
SEQGP      11971    9477   11969    9473   11970    9360   10834    9583
SEQGP      11972    9476   10833    9584   10837    8169   11978    8345
SEQGP      10836    8349   11976    8501   11977    8499   11974    8658
SEQGP      11973    8656   10835    8504   11975    8660   11981    8337
SEQGP      10839    8165   11979    8343   11980    8495   10838    8167
SEQGP      11984    8490   11982    8488   11983    8650   11987    8804
SEQGP      11985    8651   11986    8803   11990    8956   11988    8948
SEQGP      11989    8810   11991    8812   10841    8814   10840    8958
SEQGP      11992    7634   10843    7470   10844    7640   11995    7985
SEQGP      11993    7823   11994    7827   10842    7650   10846    7991
SEQGP      11996    7987   10845    7833   10850    6505   10851    6466
SEQGP      10852    8663   11997   10061   10854   10145   11998   10060
SEQGP      12001    9907   11999    9983   12000    9987   50433    9982
SEQGP      10853   10035   10847    9984   12002    9985   10848    9906
SEQGP      10857    9791   10855    9692   12003    9787   10859    9955
SEQGP      10858    9878   12004    9875   12007    9825   12005    9905
SEQGP      12006    9824   12010    9634   12008    9730   12009    9729
SEQGP      12013    9587   12011    9633   12012    9688   12014    9593
SEQGP      10856    9596   10860    9488   10849    9485   12015    9368
SEQGP      10862    9372   10863    9253   12018    9104   12016    9249
SEQGP      12017    9108   10861    9113   10865    8817   12019    8960
SEQGP      10864    8965   10866   10121   12020   10092   12021    6322
SEQGP      12022    6303   12023    6473   12024    6629   12025    6650
SEQGP      12026    6818   12027    6976   12028    6998   12029    7157
SEQGP      12030    7318   12031    7467   12032    7497   12033    7659
SEQGP      12034    7835   12035    7993   12036    8173   12037    8347
SEQGP      12038    8503   12039    8662   12040    8816   12041    8964
SEQGP      12042    9112   12043    9255   12044    9370   12045    9487
SEQGP      12046    9595   12047    9694   12048    9789   12049    9877
SEQGP      12050    9957   12051   10034   12052   10086   10876    4379
SEQGP      12058    4582   10875    4586   12056    4755   12057    4752
SEQGP      12054    4951   12053    4940   10874    4758   12055    4954
SEQGP      10873    4956   10870    5486   12060    5306   10871    5308
SEQGP      10877    5141   12059    5138   10879    5151   12061    5149
SEQGP      10878    5316   10883    6018   12064    6190   10882    6194
SEQGP      12062    6347   12063    6344   10881    6350   10890    4964
SEQGP      12073    5159   10889    5163   10867    6008   12067    6182
SEQGP      10885    6012   12065    6187   12066    6338   10884    6015
SEQGP      10872    6181   10886    6337   12071    5327   12072    5324
SEQGP      12069    5499   12068    5494   10888    5330   12070    5502
SEQGP      12076    5153   10892    4958   12074    5156   12075    5320
SEQGP      10891    4961   12079    5490   12077    5318   12078    5492
SEQGP      12082    5834   10868    5830   12080    5667   12081    5669
SEQGP      10869    5663   12085    5839   12083    5836   12084    5671
SEQGP      12086    5677   10894    5679   10893    5844   10898    3836
SEQGP      12092    4068   10897    4070   12090    4284   12091    4169
SEQGP      12088    4392   12087    4387   10896    4286   12089    4508
SEQGP      10895    4408   10880    3723   12095    3950   10900    3727
SEQGP      12093    3954   12094    4165   10899    3844   12098    4383
SEQGP      11084    4161   12096    4163   12097    4385   11085    3948
SEQGP      12101    4760   12099    4588   12100    4590   12104    4765
SEQGP      12102    4762   12103    4592   10902    4600   12105    4598
SEQGP      10901    4770   12116    3638   12114    3620   12115    3432
SEQGP      12112    3416   12106    3213   12113    3505   10907    3614
SEQGP      12117    3434   10923    4402   12142    4609   10922    4611
SEQGP      12129    6022   12145    4613   10925    4405   12143    4608
SEQGP      10924    4401   12148    4968   10931    3066   12161    3306
SEQGP      10930    3308   12159    3511   12160    3512   12157    3734
SEQGP      12156    3736   10929    3515   12158    3735   10928    3737
SEQGP      12164    3433   12163    3637   12162    3429   50482    3210
SEQGP      12167    3840   12165    3615   12166    3841   50478    3406
SEQGP      12170    4182   12168    4072   12169    3964   12173    4177
SEQGP      12171    4179   12172    3962   10935    3963   12174    3961
SEQGP      10934    4178   10939    1785   12180    1987   10938    1994
SEQGP      12178    2187   12179    2186   12176    2421   12175    2420
SEQGP      10937    2195   12177    2422   10936    2428   10941    1779
SEQGP      12181    1986   10940    1780   10943    2644   12193    2643
SEQGP      12191    2642   10942    2836   12192    2835   12195    1168
SEQGP      10945     964   10946     960   12194    1161   12196    1173
SEQGP      12201    1573   12199    1569   12200    1380   12197    1377
SEQGP      12198    1568   10944    1175   10948    1391   12202    1385
SEQGP      10947    1577   10965    3747   12234    3971   10964    3976
SEQGP      12232    4187   12233    4186   12230    4410   12229    4409
SEQGP      10963    4193   12231    4411   10962    4415   12237    3965
SEQGP      10967    3741   12235    3970   12236    4183   10966    3743
SEQGP      12240    4403   12238    4180   12239    4406   12241    4612
SEQGP      12242    4614   12245    4615   10969    4617   12247    4616
SEQGP      10973    2441   12253    2658   10972    2661   12251    2851
SEQGP      12252    2849   12249    3080   12248    3076   10971    2855
SEQGP      12250    3082   10970    3084   12256    2648   10975    2437
SEQGP      12254    2656   12255    2843   10974    2439   12259    3067
SEQGP      12257    2837   12258    3069   12262    3516   12260    3309
SEQGP      12261    3311   12265    3523   12263    3518   12264    3317
SEQGP      10977    3323   12266    3321   10976    3526   10980    1646
SEQGP      12267    1801   10978    1855   10982    1394   12268    1589
SEQGP      10981    1456   12271    1789   12269    1584   12270    1797
SEQGP      12274    2204   12272    2000   12273    2007   12277    2210
SEQGP      12275    2208   12276    2009   12278    2063   10984    2070
SEQGP      10979    1866   10983    2264   10998    4426   12303    4629
SEQGP      10997    4632   12306    4621   11000    4422   12304    4627
SEQGP      10999    4424   11005    3152   12322    3387   11004    3395
SEQGP      12320    3592   12321    3588   12318    3812   12317    3758
SEQGP      11003    3601   12319    3816   12325    3325   11007    3142
SEQGP      12323    3383   12324    3532   11006    3146   12328    3750
SEQGP      12326    3528   12327    3754   12331    4198   12329    3980
SEQGP      12330    3984   12334    4202   12332    4200   12333    3986
SEQGP      12335    4040   11009    4044   11008    4256   12336    2495
SEQGP      11011    2271   11012    2501   12339    2909   12337    2712
SEQGP      12338    2720   11010    2519   11014    2923   12340    2915
SEQGP      11013    2732   11018    4943   11019     968   11020    3827
SEQGP      12341    6142   11022    6140   12342    5966   11021    5805
SEQGP      11015    5953   11027    5792   11026    5620   12348    5621
SEQGP      11025    5450   12362    4480   12360    4683   12361    4486
SEQGP      11031    4691   11029    4499   11033    4055   12363    4260
SEQGP      11032    4273   11034    5965   12364    6139   12365     846
SEQGP      12366     837   12367    1018   12368    1179   12369    1261
SEQGP      12370    1455   12371    1645   12372    1676   12373    1881
SEQGP      12374    2074   12375    2268   12376    2323   12377    2531
SEQGP      12378    2734   12379    2925   12380    3156   12381    3393
SEQGP      12382    3600   12383    3826   12384    4054   12385    4272
SEQGP      12386    4498   12387    4699   11028    5064   11024    5260
SEQGP      12390    5105   12389    5063   11023    5288   12391    5287
SEQGP      12392    5449   12393    5619   12394    5629   12395    5804
SEQGP      12396    5964   12400    3479   11043    3275   12402    3464
SEQGP      12401    3691   12398    3706   12397    3918   11042    3276
SEQGP      12399    3480   11041    3319   11038    3856   12404    3639
SEQGP      11039    3641   11045    3861   12403    3859   11047    3426
SEQGP      12405    3634   11046    3632   11051    4362   12408    4566
SEQGP      11050    4373   12406    4579   12407    4740   11049    4376
SEQGP      11058    3033   12417    3274   11057    3271   11035    4368
SEQGP      12411    4571   11053    4366   12409    4569   12410    4743
SEQGP      11052    4364   11040    4573   11054    4745   12415    3476
SEQGP      12416    3478   12413    3703   12412    3705   11056    3474
SEQGP      12414    3701   11055    3697   12420    3320   11060    3079
SEQGP      12418    3277   12419    3481   11059    3037   12423    3749
SEQGP      12421    3525   12422    3707   12426    4146   11036    4147
SEQGP      12424    3933   12425    3932   11037    3979   12429    4142
SEQGP      12427    4144   12428    3930   11062    3926   12430    3928
SEQGP      11061    4140   12432    2434   12434    2199   12435    2435
SEQGP      12431    2654   11065    1997   11064    2157   12433    2390
SEQGP      11063    2385   12445    3078   12443    3036   12444    2847
SEQGP      12441    2805   12448    2806   12446    2848   12447    2655
SEQGP      11070    2608   12449    2612   11069    2803   11081    3049
SEQGP      12467    3289   11080    3179   12465    3415   12466    3493
SEQGP      12463    3504   12462    3715   11079    3181   12464    3299
SEQGP      11078    3058   11091    2374   12486    2595   11090    2395
SEQGP      12470    3711   11083    3489   12468    3491   12469    3713
SEQGP      11082    3287   12473    4151   12471    3937   12472    3939
SEQGP      12476    4156   12474    4153   12475    3941   12479    3725
SEQGP      12477    3953   12478    3726   11087    3298   12480    3503
SEQGP      11086    3502   12484    2617   12485    2790   12482    2812
SEQGP      12481    3022   11089    2398   12483    2620   12489    2601
SEQGP      11093    2379   12487    2598   12488    2794   11092    2376
SEQGP      12492    3030   12490    2797   12491    3027   12495    3469
SEQGP      12493    3269   12494    3263   12498    3047   12496    3285
SEQGP      12497    3044   12499    2815   50475    2751   11094    2819
SEQGP      12501    1737   12503    1517   12504    1519   12500    1740
SEQGP      11098    1317   11097    1515   12502    1735   11096    1734
SEQGP      12514    2152   12512    1957   12513    1949   12510    1749
SEQGP      12517    2144   12515    2146   12516    1945   11103    1942
SEQGP      12518    1943   11102    2143   12539     153   11113      61
SEQGP      11114     143   12538     251   12540      66   11112      62
SEQGP      11116     150   12546     156   12544     262   11115     242
SEQGP      12545     265   11107     360   11125    1765   12559    1863
SEQGP      11124    1664   12552    3059   11121    2827   12550    2951
SEQGP      12551    3180   12553    3300   12557    1681   11123    1663
SEQGP      50477    1680   11127    2171   12560    2069   11126    1972
SEQGP      12565    2950   12568    2952   12566    2959   11133    1124
SEQGP      12578    1348   11132    1143   12576    1368   12577    1544
SEQGP      12574    1555   12573    1757   11131    1144   12575    1359
SEQGP      11130    1134   12581    1753   11135    1540   12579    1542
SEQGP      12580    1755   11134    1346   12584    2161   12582    1961
SEQGP      12583    1963   12585    2163   12587    2166   12586    1965
SEQGP      12590    1767   12588    1976   12589    1768   11137    1358
SEQGP      12591    1554   11136    1553   11141     504   12597     688
SEQGP      11140     538   12595     726   12596     886   12593     925
SEQGP      12592    1103   11139     539   12594     727   11138     540
SEQGP      11104     517   12600     701   11143     516   12598     700
SEQGP      12599     897   11142     515   12601     898   11110     899
SEQGP      12603    1113   12602    1112   12606    1527   12604    1336
SEQGP      12605    1328   12609    1126   12607    1351   12608    1142
SEQGP      11145     728   12610     926   11144     911   11148      64
SEQGP      12611     155   11146     151   11150      63   12612      68
SEQGP      11149      29   12615     263   12613     154   12614     157
SEQGP      12618     380   11105     381   12616     266   12617     264
SEQGP      11106     361   12621     377   12619     378   12620     261
SEQGP      12622     260   11152     243   11147     152   11151     365
SEQGP      11156    1149   12628    1172   11155     963   12626    1015
SEQGP      12627    1226   12624    1038   11154     839   12625    1016
SEQGP      11153     962   11166     547   12647     734   11165     549
SEQGP      11122    1776   12631    1583   11158    1564   12629    1390
SEQGP      12630    1442   11157    1372   11162    1171   12641    1227
SEQGP      12645     735   12646     931   12643     932   12642    1146
SEQGP      11164     550   12644     736   11163     551   12650    1135
SEQGP      11168     919   12648     930   12649    1145   11167     733
SEQGP      12653    1556   12651    1360   12652    1369   12656    1565
SEQGP      12654    1471   12655    1370   12659    1148   12657    1371
SEQGP      12658    1147   11170     738   12660     933   11169     936
SEQGP      11173     178   12666     284   11172     179   12664     286
SEQGP      12665     404   12662     406   12661     544   11171     180
SEQGP      12663     287   12669     541   11175     401   12667     402
SEQGP      12668     543   11174     283   12672     927   12670     729
SEQGP      12671     730   12675     929   12673     928   12674     731
SEQGP      12678     546   12676     732   12677     545   12679     407
SEQGP      11177     289   11176     410   12680     398   11179     295
SEQGP      11180     280   12683     400   12681     399   12682     281
SEQGP      11178     175   11182     177   12684     282   11181     176
SEQGP      11186    4087   11187      28   11188     181   12685     949
SEQGP      11190     770   12686     755   12689    1154   12687    1376
SEQGP      12688    1155   50480    1472   11189     578   11183     750
SEQGP      12690     943   11184     942   11193     433   11191     432
SEQGP      12691     567   11195     569   11194     435   12692     568
SEQGP      12695     775   12693     749   12694     605   12698     937
SEQGP      12696     776   12697     743   12701     552   12699     739
SEQGP      12700     556   12702     416   11192     318   11196     301
SEQGP      11185     414   12703     413   11198     299   11199     292
SEQGP      12706     411   12704     412   12705     291   11197     185
SEQGP      11201     182   12707     290   11200     183   11202     591
SEQGP      12708     769   12709      65   12710      71   12711      30
SEQGP      12712      31   12713      33   12714      32   12715      67
SEQGP      12716      72   12717     159   12718     213   12719     219
SEQGP      12720     216   12721     174   12722      83   12723      84
SEQGP      12724      85   12725      86   12726      87   12727      88
SEQGP      12728      89   12729      90   12730     184   12731     217
SEQGP      12732     221   12733     223   12734     317   12735     336
SEQGP      12736     342   12737     458   12738     469   12739     473
SEQGP      12740     590   11211    5224   12743    5393   12741    5474
SEQGP      11210    5225   12742    5292   11209    5125   11206    5131
SEQGP      12745    5297   11207    5299   11212    5479   12744    5477
SEQGP      11214    5127   12746    5295   11213    5129   11217    3912
SEQGP      12749    3913   11216    3684   12747    3690   12748    3917
SEQGP      11215    3462   11224    4549   12758    4550   11223    4343
SEQGP      11203    4560   12752    4358   11219    4357   12750    4133
SEQGP      12751    4134   11218    4132   11208    4519   11220    4299
SEQGP      12756    4345   12757    4552   12754    4348   12753    4554
SEQGP      11222    4115   12755    4118   11221    3902   12761    4928
SEQGP      11226    4927   12759    4726   12760    4728   11225    4725
SEQGP      12764    4932   12762    4930   12763    4730   12767    4562
SEQGP      11204    4735   12765    4736   12766    4561   11205    4936
SEQGP      12770    4130   12768    4356   12769    4355   11228    3910
SEQGP      12771    4128   11227    3911   11232    4001   12777    4220
SEQGP      11231    4018   12775    4236   12776    4446   12773    4451
SEQGP      12772    4651   11230    4019   12774    4225   11229    4007
SEQGP      12780    4649   11234    4444   12778    4445   12779    4650
SEQGP      11233    4219   12783    5025   12781    4825   12782    4826
SEQGP      12786    5027   12784    5026   12785    4827   12789    4653
SEQGP      12787    4829   12788    4654   11236    4224   12790    4450
SEQGP      11235    4449   11239    3361   12793    3563   12791    3782
SEQGP      11238    3354   12792    3555   11237    3347   12796    4002
SEQGP      12794    4221   12795    4010   11241    3553   12797    3780
SEQGP      11240    3771   11255    3356   12822    3564   11254    3359
SEQGP      12806    3681   11247    3676   12804    3452   12805    3453
SEQGP      11246    3448   12809    3683   12807    3682   12808    3454
SEQGP      12810    3455   12820    3566   12821    3791   12818    3671
SEQGP      12817    3900   11253    3360   12819    3442   12825    4008
SEQGP      11257    3778   12823    3783   12824    4013   11256    3557
SEQGP      12828    4346   12826    4226   12827    4116   12831    3906
SEQGP      12829    4124   12830    3907   12832    3677   12834    3450
SEQGP      12833    3678   12835    3449   11263    2677   12841    2875
SEQGP      11262    2693   12839    2887   12840    3109   12837    3116
SEQGP      12836    3353   11261    2690   12838    2882   11260    2684
SEQGP      12844    3351   11265    3107   12842    3108   12843    3352
SEQGP      11264    2874   12847    3787   12845    3560   12846    3561
SEQGP      12850    3789   12848    3788   12849    3562   12853    3357
SEQGP      12851    3565   12852    3358   11267    2881   12854    3115
SEQGP      11266    3114   11271    2052   12860    2250   11270    2049
SEQGP      12858    2248   12859    2479   12856    2478   12855    2695
SEQGP      11269    2047   12857    2246   11268    2042   12863    2698
SEQGP      11273    2488   12861    2481   12862    2696   11272    2255
SEQGP      12866    3121   12864    2891   12865    2890   12869    3110
SEQGP      12867    3120   12868    2889   12872    2678   12870    2876
SEQGP      12871    2694   11275    2245   12873    2477   11274    2454
SEQGP      12874    1851   11277    1658   12875    1639   12878    2053
SEQGP      12876    2256   12877    2055   11276    1449   11279    1636
SEQGP      12879    1846   11278    1845   11296    2027   12911    2231
SEQGP      11295    2044   12909    2247   12910    2465   12907    2474
SEQGP      11294    2045   12908    2240   11293    2036   12914    2685
SEQGP      11298    2461   12912    2463   12913    2687   11297    2229
SEQGP      12917    3117   12915    2883   12916    2885   12918    3118
SEQGP      11300    2239   11304    1418   12930    1613   11303    1417
SEQGP      12928    1614   12929    1827   12926    1829   12925    2038
SEQGP      11302    1419   12927    1617   11301    1420   12933    2040
SEQGP      11306    1832   12931    1828   12932    2039   11305    1616
SEQGP      12936    2475   12934    2244   12935    2242   12939    2469
SEQGP      12937    2476   12938    2243   12942    2029   12940    2234
SEQGP      12941    2041   11308    1618   12943    1833   11307    1818
SEQGP      11311    1232   12944    1444   11309    1229   11313    1445
SEQGP      12945    1446   11312    1231   12948    1844   12946    1635
SEQGP      12947    1634   12951    1839   12949    1841   12950    1630
SEQGP      12954    1431   12952    1626   12953    1435   12955    1217
SEQGP      11315    1002   11310    1026   11314    1215   11329    1427
SEQGP      12980    1624   11328    1429   12978    1625   12979    1838
SEQGP      12976    1748   11327    1430   12977    1531   11326    1334
SEQGP      12983    2037   11331    1826   12981    1837   12982    2046
SEQGP      11330    1623   11333    1333   11336     801   12999     989
SEQGP      11335     802   12997     991   12998    1205   12995    1207
SEQGP      12994    1424   11334     803   12996     992   13002    1421
SEQGP      11338    1202   13000    1203   13001    1423   11337     988
SEQGP      13005    1834   13003    1619   13004    1620   13008    1836
SEQGP      13006    1835   13007    1621   13011    1426   13009    1622
SEQGP      13010    1425   13012    1208   11340     994   11339    1211
SEQGP      13013    1199   11342    1000   11343     985   13016    1201
SEQGP      13014    1200   13015     986   11341     798   11345     800
SEQGP      13017     987   11344     799   11349    1468   11350     804
SEQGP      13018     249   11352     142   13019     250   11351     252
SEQGP      11346     369   11357     372   11356     442   13025     512
SEQGP      11355     573   11347     506   13026     508   13034    1110
SEQGP      13035     947   11354     765   11358     954   11353     753
SEQGP      13033     895   11348    1159   13036    1214   11360    1010
SEQGP      11361     997   13039    1212   13037    1213   13038     996
SEQGP      11359     808   11363     805   13040     995   11362     806
SEQGP      11364     146   13041      74   13042    1657   13043    1467
SEQGP      13044    1271   13045    1267   13046    1247   13047    1047
SEQGP      13048    1041   13049    1025   13050     853   13051     850
SEQGP      13052     842   13053     797   13054     624   13055     625
SEQGP      13056     626   13057     627   13058     628   13059     629
SEQGP      13060     630   13061     631   13062     807   13063     843
SEQGP      13064     844   13065     835   13066     777   13067     606
SEQGP      13068     572   13069     441   13070     329   13071     256
SEQGP      13072     161   24913    6261   24919    6418   24932    6771
SEQGP      24938    6933   24947    6586   24951    7283   24956    7111
SEQGP      32399    8229   32416    8057   32432    8298   32431    8118
SEQGP      32429    8119   32428    7937   32430    7936   32424    7772
SEQGP      32423    7771   32427    7944   32425    7779   32426    7782
SEQGP      32437    8112   32435    8291   32434    8115   32436    7934
SEQGP      32433    8295   32438    7931   32439    7769   32442    7583
SEQGP      32449    7254   32448    7409   32446    7251   32445    7404
SEQGP      32447    7584   32452    7593   32451    7590   32450    7413
SEQGP      32456    8775   32473    8452   32471    8447   32476    8620
SEQGP      32475    8617   32474    8456   32486    7790   32485    7600
SEQGP      32483    7601   32482    7420   32484    7419   32478    7263
SEQGP      32477    7262   32481    7426   32479    7268   32480    7269
SEQGP      32504    8783   32503    8627   32501    8628   32491    7594
SEQGP      32489    7783   32488    7597   32490    7417   32487    7788
SEQGP      32494    7255   32492    7414   32493    7260   32500    8463
SEQGP      32502    8462   32496    8307   32495    8306   32499    8468
SEQGP      32497    8311   32498    8314   32509    8621   32507    8776
SEQGP      32506    8624   32508    8460   32505    8780   32512    8299
SEQGP      32510    8457   32511    8304   32515    7946   32513    8125
SEQGP      32514    8127   32518    7950   32517    8128   32516    7947
SEQGP      32521    8134   32520    8131   32519    7841   32527    8929
SEQGP      32525    8924   32530    9087   32529    9084   32528    8933
SEQGP      32540    8318   32539    8137   32537    8139   32536    7957
SEQGP      32538    7955   32532    7796   32531    7794   32535    7958
SEQGP      32533    7797   32534    7800   32545    8133   32543    8313
SEQGP      32542    8136   32544    7954   32541    8317   32548    7791
SEQGP      32546    7952   32547    7793   32551    7427   32549    7605
SEQGP      32550    7606   32557    7276   32556    7430   32554    7273
SEQGP      32553    7429   32555    7608   32552    7272   32560    7612
SEQGP      32559    7609   32558    7433   32566    8940   32569    9094
SEQGP      32568    8939   32562    8792   32561    8791   32563    8797
SEQGP      32572    9088   32571    8937   32570    9091   32575    8784
SEQGP      32573    8934   32574    8789   32578    8471   32576    8633
SEQGP      32577    8637   32581    8476   32579    8470   32580    8636
SEQGP      32584    8644   32583    8641   32582    8478   32589    7438
SEQGP      32590    7617   32598    7611   32596    7434   32597    7435
SEQGP      32594    7279   32595    7277   32585    7802   32599    7613
SEQGP      32586    7799   32609    7960   32607    7961   32608    8144
SEQGP      32612    8321   32610    8140   32611    8323   32613    8481
SEQGP      32622    7619   32645    6759   32717    6756   32644    6580
SEQGP      32720    7086   32647    7087   32718    6910   32646    6917
SEQGP      32652    7103   32733    7100   32731    7096   32651    6925
SEQGP      32732    6923   32650    6764   32736    6919   32734    7093
SEQGP      32735    7095   32654    6763   32737    6920   32653    6760
SEQGP      32764    6584   32665    6623   32763    6417   32767    6581
SEQGP      32765    6583   32766    6416   32768    6414   32769    6260
SEQGP      32783    7109   32673    7110   32782    6932   32786    7105
SEQGP      32784    7106   32785    6929   32789    6768   32787    6928
SEQGP      32788    6767   34201    9233   34271    9234   34269    9238
SEQGP      34299    9354   34367    7496   36419    6518   36437    7050
SEQGP      36646    7047   36436    7219   36644    7217   36645    7044
SEQGP      36642    7211   36641    7039   36422    6526   36649    6705
SEQGP      36439    6709   36647    6870   36648    6867   36438    6873
SEQGP      36652    6699   36539    6520   36650    6702   36651    6863
SEQGP      36540    6523   36653    6861   36654    7037   36656    7207
SEQGP      36657    7209   36670    6875   36668    6711   36667    6530
SEQGP      36702    7221   36729    6306   36465    6799   36736    6618
SEQGP      36466    6793   36734    6612   36735    6455   36732    6448
SEQGP      36737    6617   36473    6798   36777    6958   36775    6956
SEQGP      36464    6960   36536    5515   36858    5687   36535    5692
SEQGP      36856    5855   36857    5852   36854    6031   36853    6026
SEQGP      36534    5859   36855    6034   36533    6037   36530    5504
SEQGP      36861    5681   36538    5506   36859    5684   36860    5848
SEQGP      36537    5509   36862    5846   36863    6024   36867    6352
SEQGP      36865    6196   36866    6198   36870    6357   36868    6354
SEQGP      36869    6200   36542    6208   36871    6206   36541    6362
SEQGP      36875    4783   36876    4782   36873    4981   36872    4980
SEQGP      36544    4784   36874    4982   36543    4979   36882    5346
SEQGP      36880    5334   36881    5178   36878    5167   36879    5332
SEQGP      36548    5175   36883    5179   36547    5341   36560    4985
SEQGP      36896    5181   36559    5183   36890    6364   36889    6210
SEQGP      36894    5348   36895    5347   36892    5521   36891    5520
SEQGP      36558    5351   36893    5522   36557    5523   36899    5177
SEQGP      36562    4983   36897    5180   36898    5345   36561    4984
SEQGP      36902    5516   36900    5343   36901    5518   36905    5860
SEQGP      36903    5693   36924    4785   36927    4787   36925    4786
SEQGP      36571    4788   36957    4801   36958    4799   36955    4997
SEQGP      36954    4995   36585    4805   36956    4999   36584    5001
SEQGP      36961    4795   36965    4986   36963    4789   36964    4988
SEQGP      36968    5352   36966    5184   36967    5186   36577    5531
SEQGP      36971    5359   36578    5527   36969    5354   36970    5192
SEQGP      36579    5525   36591    5196   36972    5194   36590    5361
SEQGP      36574    5957   36583    6134   36988    6131   36986    6296
SEQGP      36987    6294   36989    6129   36594    5955   36990    5451
SEQGP      36994    5796   36992    5794   36993    5623   36997    5533
SEQGP      36995    5710   36996    5537   36575    5872   37000    5198
SEQGP      36998    5363   36999    5367   37001    5256   36595    5059
SEQGP      37002    4859   36604    4867   37009    4865   39741    4781
SEQGP      39743    4772   39744    4970   39746    5165   43953    3259
SEQGP      43974    1998   44298    2200   43957    2609   44301    2610
SEQGP      43976    2387   44299    2388   44300    2611   43975    2155
SEQGP      44304    3035   44101    3034   44302    2804   44102    2802
SEQGP      44319    2386   43993    1095   44334    1320   44335    1337
SEQGP      44336    1532   43994    1114   44340    1787   43983    1788
SEQGP      44338    1576   44098    3245   44532    3247   44097    3006
SEQGP      44530    3007   44531    3248   44528    3009   44527    3249
SEQGP      44096    2775   44529    2776   44095    2584   44541    3257
SEQGP      44540    3250   44544    2784   44542    3016   44543    3010
SEQGP      44104    2583   44545    2777   44103    2589   44105    3236
SEQGP      44112    3243   44111    3244   44125    2572   44585    2577
SEQGP      44124    2357   44578    2364   44121    2365   44579    2368
SEQGP      44583    2358   44584    2578   44581    2359   44580    2579
SEQGP      44588    3002   44127    2995   44586    2770   44587    2771
SEQGP      44126    2764   44591    3004   44589    3003   44590    2772
SEQGP      44594    2582   44592    2774   44593    2581   44595    2363
SEQGP      44596    2362   44599    2689   44613    3119   44612    2886
SEQGP      44616    2691   44614    2888   44615    2692   44617    2473
SEQGP      44136    2472   44145    1327   44631    1329   44144    1107
SEQGP      44146    1502   44645    1956   44656    2360   44654    2241
SEQGP      44655    2133   44657    2128   44123    2126   44659    1924
SEQGP      44658    1930   44662    1526   44660    1722   44661    1746
SEQGP      44147    1713   44663    1530   44158    1332   44692     698
SEQGP      44696     691   44695     694   44699    1108   44697     891
SEQGP      44698     892   44143     890   44700    1109   45753    6973
SEQGP      45805    7143   45763    7477   45773    7997   45783    7787
SEQGP      45793    6762   45743    6461   45806    6480   45808    6647
SEQGP      45810    7861   45812    8001   45814    7326   46122    6952
SEQGP      46119    7127   46121    7065   46115    7232   46125    7230
SEQGP      46618    7064   46619    6795   46620    7228   46834    6045
SEQGP      46833    6217   46831    6219   46830    6374   46832    6370
SEQGP      46826    6539   46825    6534   46829    6376   46827    6543
SEQGP      46828    6544   46837    6039   46836    6213   46838    6366
SEQGP      46835    6044   46841    6532   46861    5695   46865    5864
SEQGP      46864    5697   46863    5862   46868    5699   46867    5698
SEQGP      46866    5962   46878    5702   46876    5707   46875    5868
SEQGP      46877    5867   46871    6049   46870    6048   46872    6050
SEQGP      46884    5700   46881    5701   46883    5866   46887    6046
SEQGP      46885    5865   46886    6047   46890    6377   46888    6220
SEQGP      46889    6221   46896    6547   46895    6379   46893    6546
SEQGP      46892    6378   46894    6222   46891    6545   46898    6223
SEQGP      46897    6380   46926    6450   46945    6723   46955    6721
SEQGP      46953    6715   46944    6884   46954    6880   46943    7058
SEQGP      46957    6713   46947    7056   46959    6877   46946    7052
SEQGP      46961    7225   46948    7149   46962    7223   46968    6727
SEQGP      46949    6615   46967    6889   46971    6725   46969    6726
SEQGP      46970    6888   46974    7060   46972    6886   46973    7062
SEQGP      47193    6792   47223    6614   47199    6299   47205    5801
SEQGP      47211    6042   47217    7055   47187    7307   47224    7312
SEQGP      47225    7159   47226    5985   47227    5806   47228    6319
SEQGP      47536     500   47533     467   47535     584   47529     585
SEQGP      47530     518   47538     362   47540     900   47543     703
SEQGP      47542     704   47539     762   48032     761   48033     501
SEQGP      48034     953   48036     379   48248    1927   48247    1928
SEQGP      48245    1718   48244    1724   48246    1932   48240    1741
SEQGP      48239    1950   48243    1504   48241    1520   48242    1322
SEQGP      48250    2131   48252    2135   48249    2090   48255    2153
SEQGP      48259    2127   48260    1923   48279    2130   48282    1955
SEQGP      48281    2156   48280    1952   48289    1104   48291    1330
SEQGP      48285    1105   48284    1331   48286     887   48287     690
SEQGP      48298    1747   48295    1528   48297    1529   48301    1743
SEQGP      48299    1745   48300    1524   48304    1323   48302    1522
SEQGP      48303    1325   48310     697   48309     893   48307     883
SEQGP      48306    1099   48308    1106   48305    1097   48313     689
SEQGP      48312     888   48311     696   48343     505   48341     507
SEQGP      48342     368   48339     370   48340     510   48344     367
SEQGP      48359    1321   48369    1521   48367    1742   48358    1324
SEQGP      48368    1523   48357    1382   48372    1953   48370    2154
SEQGP      48371    1951   48361    1575   48373    1744   48375    1383
SEQGP      48362    1165   48382     685   48363     565   48381     684
SEQGP      48385    1096   48383     881   48384     882   48388    1163
SEQGP      48386    1098   48387     952   48607     430   48637     468
SEQGP      48613     693   48619    1954   48625    2287   48631    1654
SEQGP      48601    1164   48638    1260   48639    1474   48640    2290
SEQGP      48641    2097   48642     604   50420    9403   50421    9151
SEQGP      50423    9019   50425    9272   50428    9162   50430    9518
SEQGP      50431    9392   50432    9903   50435    9922   50476    2321
SEQGP      50479    1388   50483    1473   23391    5882   23390    6063
SEQGP      23392    5723   23395    6563   23387    6742   23396    6395
SEQGP      23397    6244   23388    6664   23389    6665   23386    6902
SEQGP      23385    7078   20001    7243   23416    5562   23400    5737
SEQGP      23417    5389   23418    5228   23424    4818   20006    4645
SEQGP      23425    5016   20003    5213   23394    5380   23393    5550
SEQGP      23402    5630   23401    5631   23426    6090   23408    6257
SEQGP      23427    5909   23428    5751   23399    5899   23398    6079
SEQGP      23410    6161   23409    6162   23407    6412   23452    4458
SEQGP      23421    4662   23453    4232   23454    4023   23423    4525
SEQGP      23422    4526   23457    5042   23431    5237   23458    4846
SEQGP      23459    4676   23420    4835   23419    5033   23433    5106
SEQGP      23432    5107   23465    5586   23439    5759   23466    5418
SEQGP      23467    5251   23430    5403   23429    5575   23441    5638
SEQGP      23440    5639   23473    6114   23447    6277   23474    5938
SEQGP      23475    5777   23438    5921   23437    6102   23436    6269
SEQGP      23449    6153   23448    6157   23446    6428   23445    6594
SEQGP      23444    6777   23451    6656   23450    6660   23482    3804
SEQGP      23462    4031   23483    3583   23484    3378   23490    2899
SEQGP      20008    2705   23491    3125   20007    3364   23456    3568
SEQGP      23455    3793   23464    3867   23463    3868   23492    4491
SEQGP      23470    4688   23493    4267   23494    4049   23461    4246
SEQGP      23460    4471   23472    4533   23471    4534   23500    5078
SEQGP      23478    5272   23501    4883   23469    4855   23468    5053
SEQGP      23480    5114   23479    5115   23477    5433   23476    5603
SEQGP      23481    5646   23504    2506   23487    2717   23505    2280
SEQGP      23489    2539   23488    2540   23506    3168   23497    3402
SEQGP      23486    2905   23485    3136   23499    3214   23498    3215
SEQGP      23496    3596   23495    3820   23503    3875   23502    3876
SEQGP      23513    5881   23512    6062   23514    5718   23517    6562
SEQGP      23509    6741   23518    6394   23519    6238   23510    6666
SEQGP      23511    6667   23508    6901   23507    7075   20009    7238
SEQGP      23538    5561   23522    5736   23539    5388   23540    5220
SEQGP      23546    4817   20014    4642   23547    5015   20011    5212
SEQGP      23516    5378   23515    5548   23524    5632   23523    5633
SEQGP      23548    6089   23530    6258   23549    5908   23550    5745
SEQGP      23521    5898   23520    6076   23532    6163   23531    6164
SEQGP      23529    6411   23574    4457   23543    4661   23575    4231
SEQGP      23576    4014   23545    4527   23544    4528   23579    5045
SEQGP      23553    5241   23580    4845   23581    4671   23542    4834
SEQGP      23541    5030   23555    5108   23554    5109   23587    5591
SEQGP      23561    5761   23588    5419   23589    5252   23552    5406
SEQGP      23551    5576   23563    5640   23562    5641   23595    6118
SEQGP      23569    6281   23596    5939   23597    5778   23560    5924
SEQGP      23559    6103   23558    6149   23571    6154   23570    6158
SEQGP      23568    6433   23567    6595   23566    6648   23573    6657
SEQGP      23572    6661   23604    3809   23584    4033   23605    3584
SEQGP      23606    3379   23612    2898   20016    2703   23613    3130
SEQGP      20015    3368   23578    3571   23577    3794   23586    3869
SEQGP      23585    3870   23614    4495   23592    4694   23615    4268
SEQGP      23616    4050   23583    4249   23582    4472   23594    4535
SEQGP      23593    4536   23622    5084   23600    5276   23623    4885
SEQGP      23591    4862   23590    5054   23602    5116   23601    5117
SEQGP      23599    5438   23598    5604   23603    5647   23626    2509
SEQGP      23609    2723   23627    2282   23611    2541   23610    2542
SEQGP      23628    3171   23619    3412   23608    2912   23607    3137
SEQGP      23621    3216   23620    3217   23618    3609   23617    3821
SEQGP      23625    3877   23624    3878   23635    5883   23634    6064
SEQGP      23636    5719   23639    6564   23631    6739   23640    6396
SEQGP      23641    6239   23632    6668   23633    6669   23630    6898
SEQGP      23629    7071   20017    7239   23660    5563   23644    5734
SEQGP      23661    5390   23662    5221   23668    4816   20022    4641
SEQGP      23669    5014   20019    5210   23638    5376   23637    5544
SEQGP      23646    5634   23645    5635   23670    6091   23652    6254
SEQGP      23671    5910   23672    5746   23643    5895   23642    6071
SEQGP      23654    6165   23653    6166   23651    6408   23696    4459
SEQGP      23665    4659   23697    4233   23698    4015   23667    4529
SEQGP      23666    4530   23701    5046   23675    5243   23702    4847
SEQGP      23703    4672   23664    4831   23663    5022   23677    5110
SEQGP      23676    5111   23709    5592   23683    5765   23710    5420
SEQGP      23711    5253   23674    5408   23673    5571   23685    5642
SEQGP      23684    5643   23717    6119   23691    6283   23718    5940
SEQGP      23719    5779   23682    5926   23681    6099   23680    6150
SEQGP      23693    6155   23692    6159   23690    6435   23689    6597
SEQGP      23688    6649   23695    6658   23694    6662   23726    3810
SEQGP      23706    4037   23727    3585   23728    3380   23734    2897
SEQGP      20024    2702   23735    3129   20023    3370   23700    3573
SEQGP      23699    3784   23708    3871   23707    3872   23736    4496
SEQGP      23714    4696   23737    4269   23738    4051   23705    4251
SEQGP      23704    4468   23716    4537   23715    4538   23744    5086
SEQGP      23722    5278   23745    4887   23713    4864   23712    5056
SEQGP      23724    5118   23723    5119   23721    5440   23720    5606
SEQGP      23725    5648   23748    2511   23731    2725   23749    2283
SEQGP      23733    2543   23732    2544   23750    3172   23741    3413
SEQGP      23730    2914   23729    3139   23743    3218   23742    3219
SEQGP      23740    3611   23739    3823   23747    3879   23746    3880
SEQGP      23757    5884   23756    6061   23758    5720   23761    6560
SEQGP      23753    6736   23762    6397   23763    6240   23754    6670
SEQGP      23755    6671   23752    6895   23751    7072   20025    7240
SEQGP      23782    5559   23766    5731   23783    5391   23784    5222
SEQGP      23790    4815   20030    4640   23791    5012   20027    5208
SEQGP      23760    5373   23759    5545   23768    5636   23767    5637
SEQGP      23792    6086   23774    6251   23793    5911   23794    5747
SEQGP      23765    5890   23764    6072   23776    6167   23775    6168
SEQGP      23773    6405   23818    4455   23787    4656   23819    4234
SEQGP      23820    4016   23789    4531   23788    4532   23823    5044
SEQGP      23797    5239   23824    4848   23825    4673   23786    4823
SEQGP      23785    5023   23799    5112   23798    5113   23831    5589
SEQGP      23805    5763   23832    5421   23833    5254   23796    5400
SEQGP      23795    5572   23807    5644   23806    5645   23839    6116
SEQGP      23813    6279   23840    5941   23841    5780   23804    5919
SEQGP      23803    6100   23802    6266   23815    6156   23814    6160
SEQGP      23812    6430   23811    6598   23810    6778   23817    6659
SEQGP      23816    6663   23848    3807   23828    4035   23849    3586
SEQGP      23850    3381   23856    2896   20032    2701   23857    3127
SEQGP      20031    3366   23822    3558   23821    3785   23830    3873
SEQGP      23829    3874   23858    4493   23836    4690   23859    4270
SEQGP      23860    4052   23827    4244   23826    4469   23838    4539
SEQGP      23837    4540   23866    5080   23844    5274   23867    4889
SEQGP      23835    4857   23834    5057   23846    5120   23845    5121
SEQGP      23843    5435   23842    5607   23847    5649   23870    2508
SEQGP      23853    2719   23871    2284   23855    2545   23854    2546
SEQGP      23872    3173   23863    3404   23852    2907   23851    3140
SEQGP      23865    3220   23864    3221   23862    3598   23861    3824
SEQGP      23869    3881   23868    3882   23873    6676   23874    6675
SEQGP      23875    6674   23876    6673   23877    6173   23878    6172
SEQGP      23879    6171   23880    6170   23881    5823   20033    5657
SEQGP      23882    6001   23883    6329   23884    6497   23885    6837
SEQGP      23886    7013   20034    7183   23887    5822   20035    5655
SEQGP      23888    5999   23889    6328   23890    6496   23891    6836
SEQGP      23892    7012   20036    7182   23893    5820   20037    5654
SEQGP      23894    5998   23895    6327   23896    6495   23897    6835
SEQGP      23898    7011   20038    7181   23899    5819   20039    5652
SEQGP      23900    5997   23901    6326   23902    6494   23903    6834
SEQGP      23904    7010   20040    7180   23905    6786   23906    6790
SEQGP      23907    6791   23908    6789   23909    5786   23910    5787
SEQGP      23911    5790   23912    5791   23913    4711   23914    4712
SEQGP      23915    4713   23916    4714   23917    4076   23918    4077
SEQGP      23919    4078   23920    4080   23921    2936   23922    2937
SEQGP      23923    2938   23924    2940   23925    2081   23926    2082
SEQGP      23927    2083   23928    2085   23929    7121   20041    7288
SEQGP      23930    6945   23931    6607   23932    6442   23933    6287
SEQGP      23934    6124   23935    5947   23936    5612   23937    5444
SEQGP      23938    5281   23939    5083   23940    4884   23941    4513
SEQGP      23942    4290   23943    3845   23944    3621   23945    3417
SEQGP      23946    3182   23947    3169   23948    2743   23949    2533
SEQGP      23950    2525   23951    2303   23952    2103   23953    1872
SEQGP      23954    1671   20042    1669   23955    7122   20043    7291
SEQGP      23956    6946   23957    6608   23958    6443   23959    6292
SEQGP      23960    6125   23961    5948   23962    5617   23963    5445
SEQGP      23964    5282   23965    5085   23966    4886   23967    4514
SEQGP      23968    4292   23969    3846   23970    3622   23971    3418
SEQGP      23972    3183   23973    2954   23974    2744   23975    2534
SEQGP      23976    2325   23977    2304   23978    2104   23979    1873
SEQGP      23980    1672   20044    1483   23981    7123   20045    7292
SEQGP      23982    6950   23983    6609   23984    6446   23985    6293
SEQGP      23986    6126   23987    5949   23988    5618   23989    5446
SEQGP      23990    5283   23991    5087   23992    4888   23993    4515
SEQGP      23994    4293   23995    3848   23996    3624   23997    3420
SEQGP      23998    3184   23999    2955   24000    2746   24001    2535
SEQGP      24002    2326   24003    2305   24004    2105   24005    1875
SEQGP      24006    1673   20046    1484   24007    7125   20047    7290
SEQGP      24008    6949   24009    6611   24010    6447   24011    6290
SEQGP      24012    6127   24013    5952   24014    5615   24015    5447
SEQGP      24016    5284   24017    5088   24018    4890   24019    4516
SEQGP      24020    4294   24021    3850   24022    3626   24023    3421
SEQGP      24024    3185   24025    3174   24026    2747   24027    2536
SEQGP      24028    2526   24029    2306   24030    2106   24031    1876
SEQGP      24032    1674   20048    1670   20057    7687   20056    7679
SEQGP      20058    7765   20061    8533   20052    8379   20062    8686
SEQGP      20063    8718   20053    8372   20054    8199   20069    9138
SEQGP      20055    9050   20070    9270   20071    9384   20051    8381
SEQGP      20050    8537   20049    8578   20093    7170   20060    7395
SEQGP      20059    7576   20068    7873   20094    9165   20074    9158
SEQGP      20095    9169   20096    9217   20064    8556   20065    8388
SEQGP      20076    8871   20075    9030   10599    9718   20102    9719
SEQGP      20080    9626   10571    9625   10598    9812   20103    9813
SEQGP      20104    9846   20073    9167   20072    9296   20082    9500
SEQGP      20081    9520   10576    9519   10607   10063   20110   10064
SEQGP      20083    9993   10577    9992   20112   10201   20111   10195
SEQGP      10572    9636   20079    9637   10573    9733   20078    9734
SEQGP      10574    9737   20077    9767   20133    9524   20107    9547
SEQGP      20134    9525   20135    9576   20097    9070   20098    8915
SEQGP      20109    9309   20108    9432   20141   10003   20115   10057
SEQGP      20142   10004   20143   10046   20106    9646   20105    9751
SEQGP      20117    9931   20116    9981   20114   10140   20113   10191
SEQGP      20119   10205   20118   10206   20168    9831   20146    9870
SEQGP      20169    9738   20136    9465   20137    9345   20148    9678
SEQGP      20147    9781   20145    9888   20144    9966   20149   10134
SEQGP      20174    8696   20165    8798   20164    8834   20163    8977
SEQGP      20162    9124   20171    9265   20170    9292   20183    7688
SEQGP      20182    7680   20184    7766   20187    8534   20178    8380
SEQGP      20188    8692   20189    8719   20179    8375   20180    8364
SEQGP      20195    9198   20181    9049   20196    9278   20197    9385
SEQGP      20177    8382   20176    8538   20175    8576   20219    7171
SEQGP      20186    7396   20185    7577   20194    7930   20220    9166
SEQGP      20200    9157   20221    9170   20222    9218   20190    8557
SEQGP      20191    8389   20202    8870   20201    9028   20228    9720
SEQGP      20206    9627   20229    9814   20230    9847   20199    9290
SEQGP      20198    9297   20208    9501   20207    9624   20236   10065
SEQGP      20209    9994   20238   10231   20237   10198   20205    9638
SEQGP      20204    9735   20203    9766   20259    9528   20233    9541
SEQGP      20260    9529   20261    9577   20223    9071   20224    8916
SEQGP      20235    9337   20234    9433   20267   10073   20241   10058
SEQGP      20268   10008   20269   10047   20232    9647   20231    9752
SEQGP      20243    9930   20242   10016   20240   10142   20239   10192
SEQGP      20245   10235   20244   10239   20294    9832   20272    9865
SEQGP      20295    9739   20262    9466   20263    9346   20274    9677
SEQGP      20273    9779   20271    9946   20270    9967   20275   10135
SEQGP      20300    8697   20291    8793   20290    8941   20289    8978
SEQGP      20288    9125   20297    9159   20296    9293   20309    7689
SEQGP      20308    7681   20310    7763   20313    8535   20304    8528
SEQGP      20314    8693   20315    8716   20305    8520   20306    8365
SEQGP      20321    9193   20307    9047   20322    9315   20323    9393
SEQGP      20303    8536   20302    8539   20301    8575   20345    7174
SEQGP      20312    7397   20311    7578   20320    7928   20346    9168
SEQGP      20326    9176   20347    9171   20348    9215   20316    8559
SEQGP      20317    8390   20328    8868   20327    9024   20354    9721
SEQGP      20332    9717   20355    9815   20356    9844   20325    9291
SEQGP      20324    9404   20334    9502   20333    9705   20362   10066
SEQGP      20335    9995   20364   10232   20363   10199   20331    9722
SEQGP      20330    9736   20329    9763   20385    9530   20359    9542
SEQGP      20386    9531   20387    9573   20349    9072   20350    8917
SEQGP      20361    9335   20360    9428   20393   10082   20367   10105
SEQGP      20394   10081   20395   10048   20358    9648   20357    9753
SEQGP      20369    9928   20368   10012   20366   10143   20365   10193
SEQGP      20371   10249   20370   10260   20420    9833   20398    9866
SEQGP      20421    9740   20388    9467   20389    9347   20400    9675
SEQGP      20399    9775   20397    9947   20396   10031   20401   10136
SEQGP      20426    8699   20417    8794   20416    8942   20415    9095
SEQGP      20414    9126   20423    9160   20422    9294   20435    7690
SEQGP      20434    7691   20436    7761   20439    8687   20430    8680
SEQGP      20440    8694   20441    8714   20431    8521   20432    8366
SEQGP      20447    9190   20433    9041   20448    9316   20449    9440
SEQGP      20429    8540   20428    8541   20427    8574   20471    7176
SEQGP      20438    7398   20437    7574   20446    7865   20472    9172
SEQGP      20452    9177   20473    9173   20474    9213   20442    8555
SEQGP      20443    8391   20454    8865   20453    9025   20480    9811
SEQGP      20458    9758   20481    9816   20482    9842   20451    9300
SEQGP      20450    9405   20460    9508   20459    9706   20488   10067
SEQGP      20461   10023   20490   10218   20489   10200   20457    9741
SEQGP      20456    9742   20455    9761   20511    9532   20485    9543
SEQGP      20512    9533   20513    9571   20475    9068   20476    8918
SEQGP      20487    9306   20486    9429   20519   10091   20493   10106
SEQGP      20520   10088   20521   10118   20484    9649   20483    9748
SEQGP      20495    9925   20494   10013   20492   10168   20491   10194
SEQGP      20497   10246   20496   10269   20546    9834   20524    9867
SEQGP      20547    9807   20514    9462   20515    9348   20526    9672
SEQGP      20525    9776   20523    9948   20522   10030   20527   10137
SEQGP      20552    8701   20543    8795   20542    8943   20541    9093
SEQGP      20540    9237   20549    9266   20548    9295   20553    8187
SEQGP      20554    8188   20555    8189   20556    8190   20557    7671
SEQGP      20558    7670   20559    7703   20560    7702   20561    7339
SEQGP      20562    7517   20563    7847   20564    8010   20565    8019
SEQGP      20566    7857   20567    7856   20568    7338   20569    7516
SEQGP      20570    7848   20571    8011   20572    8020   20573    7858
SEQGP      20574    7692   20575    7337   20576    7515   20577    7849
SEQGP      20578    8012   20579    8021   20580    7859   20581    7693
SEQGP      20582    7336   20583    7514   20584    7869   20585    8013
SEQGP      20586    8022   20587    7860   20588    7855   20589   10207
SEQGP      20590   10240   20591   10259   20592   10275   20593   10185
SEQGP      20594   10186   20595   10189   20596   10190   20597    9711
SEQGP      20598    9712   20599    9713   20600    9714   20601    9395
SEQGP      20602    9396   20603    9397   20604    9399   20605    8672
SEQGP      20606    8674   20607    8675   20608    8676   20613   10197
SEQGP      20614   10196   20615   10208   20616   10210   20617   10209
SEQGP      20618   10203   20619   10202   20620   10204   20621   10128
SEQGP      20622   10050   20623    9971   20624    9892   20625    9804
SEQGP      20626    9618   20627    9510   20628    9280   20629    9140
SEQGP      20630    8993   20631    8849   20632    8830   20633    8514
SEQGP      20634    8359   20635    8183   20636    8007   20637    7846
SEQGP      20609    7808   20639    7441   20640   10233   20641   10224
SEQGP      20642   10234   20643   10241   20644   10238   20645   10237
SEQGP      20646   10236   20647   10226   20648   10138   20649   10051
SEQGP      20650    9972   20651    9893   20652    9805   20653    9619
SEQGP      20654    9512   20655    9281   20656    9141   20657    8994
SEQGP      20658    8850   20659    8698   20660    8515   20661    8360
SEQGP      20662    8185   20663    8008   20664    7971   20610    7809
SEQGP      20666    7446   20667   10254   20668   10225   20669   10258
SEQGP      20670   10263   20671   10262   20672   10261   20673   10255
SEQGP      20674   10227   20675   10139   20676   10052   20677    9973
SEQGP      20678    9894   20679    9806   20680    9620   20681    9513
SEQGP      20682    9283   20683    9143   20684    8996   20685    8851
SEQGP      20686    8700   20687    8516   20688    8362   20689    8186
SEQGP      20690    8152   20691    7972   20611    7810   20693    7447
SEQGP      20694   10252   20695   10223   20696   10274   20697   10276
SEQGP      20698   10277   20699   10268   20700   10256   20701   10230
SEQGP      20702   10132   20703   10053   20704    9974   20705    9895
SEQGP      20706    9808   20707    9621   20708    9514   20709    9285
SEQGP      20710    9145   20711    8997   20712    8852   20713    8832
SEQGP      20714    8518   20715    8363   20716    8330   20717    8150
SEQGP      20718    7970   20612    7812   20720    7444   20729    7892
SEQGP      20728    7723   20730    8077   20733    7200   20724    7034
SEQGP      20734    7360   20735    7543   20725    7000   20726    7001
SEQGP      20723    6858   20722    6694   20756    8249   20738    8069
SEQGP      20757    8412   20758    8580   20764    8891   20765    8738
SEQGP      20732    8417   20731    8258   20740    8259   20739    8250
SEQGP      20766    7742   20746    7555   20767    7911   20768    8094
SEQGP      20737    7883   20736    7714   20748    7499   20747    7500
SEQGP      20745    7373   20792    9132   20761    8987   10783    9504
SEQGP      20794    9505   20793    9388   10784    9387   20763    9010
SEQGP      20762    8861   20797    8750   20771    8597   20798    8902
SEQGP      20799    9061   20760    8846   20759    8695   20773    8542
SEQGP      20772    8543   20805    8287   20779    8107   20806    8444
SEQGP      20807    8486   20770    8429   20769    8270   20781    8028
SEQGP      20780    8029   20813    7454   20787    7299   20814    7483
SEQGP      20815    7635   20778    7926   20777    7758   20776    7571
SEQGP      20789    7487   20788    7455   20786    7133   20822    9565
SEQGP      20802    9453   20823    9669   20824    9682   10824    9912
SEQGP      20830    9913   10823    9829   20831    9830   10781    9707
SEQGP      20796    9708   10782    9612   20795    9613   10792    9407
SEQGP      20804    9409   10793    9408   20803    9410   20832    8951
SEQGP      20810    8806   20833    8999   20834    9105   20801    9329
SEQGP      20800    9204   20812    9003   20811    8952   20840    8036
SEQGP      20818    8160   20841    8037   20809    8652   20808    8491
SEQGP      20820    8489   20819    8338   20817    7979   20816    7819
SEQGP      20821    7468   20844    9908   20827    9827   20845    9986
SEQGP      10825    9917   20829    9918   20828    9835   20846    9417
SEQGP      20837    9480   20826    9731   20825    9685   20839    9684
SEQGP      20838    9588   20836    9362   20835    9245   20843    8961
SEQGP      20842    8818   20855    7891   20854    7722   20856    8076
SEQGP      20859    7205   20850    7033   20860    7361   20861    7526
SEQGP      20851    7002   20852    7003   20849    6857   20848    6693
SEQGP      20882    8247   20864    8068   20883    8410   20884    8568
SEQGP      20890    8890   20891    8737   20858    8408   20857    8255
SEQGP      20866    8256   20865    8248   20892    7741   20872    7554
SEQGP      20893    7908   20894    8088   20863    7882   20862    7713
SEQGP      20874    7501   20873    7502   20871    7372   20918    9135
SEQGP      20887    8990   20920    9506   20919    9389   20889    9014
SEQGP      20888    8862   20923    8755   20897    8596   20924    8903
SEQGP      20925    9055   20886    8848   20885    8729   20899    8544
SEQGP      20898    8545   20931    8286   20905    8109   20932    8442
SEQGP      20933    8605   20896    8428   20895    8269   20907    8030
SEQGP      20906    8031   20939    7327   20913    7300   20940    7484
SEQGP      20941    7641   20904    7924   20903    7759   20902    7638
SEQGP      20915    7486   20914    7328   20912    7134   20948    9564
SEQGP      20928    9454   20949    9668   20950    9769   20956    9914
SEQGP      20957    9857   20922    9662   20921    9614   20930    9411
SEQGP      20929    9412   20958    8853   20936    8807   20959    9000
SEQGP      20960    9109   20927    9328   20926    9203   20938    9002
SEQGP      20937    8854   20966    8038   20944    8161   20967    8039
SEQGP      20935    8653   20934    8648   20946    8496   20945    8339
SEQGP      20943    7980   20942    7824   20947    7471   20970    9909
SEQGP      20953    9828   20971    9988   20955    9919   20954    9836
SEQGP      20972    9418   20963    9481   20952    9785   20951    9783
SEQGP      20965    9689   20964    9589   20962    9363   20961    9250
SEQGP      20969    8967   20968    8820   20981    7890   20980    7721
SEQGP      20982    8074   20985    7203   20976    7031   20986    7346
SEQGP      20987    7527   20977    7004   20978    7005   20975    6856
SEQGP      20974    6692   21008    8244   20990    8067   21009    8400
SEQGP      21010    8569   21016    8889   21017    8736   20984    8405
SEQGP      20983    8241   20992    8242   20991    8245   21018    7738
SEQGP      20998    7552   21019    7903   21020    8089   20989    7884
SEQGP      20988    7715   21000    7503   20999    7504   20997    7374
SEQGP      21044    9137   21013    8992   21046    9507   21045    9390
SEQGP      21015    9016   21014    9015   21049    8753   21023    8595
SEQGP      21050    8898   21051    9056   21012    8884   21011    8730
SEQGP      21025    8546   21024    8547   21057    8283   21031    8104
SEQGP      21058    8438   21059    8606   21022    8430   21021    8271
SEQGP      21033    8032   21032    8033   21065    7329   21039    7301
SEQGP      21066    7485   21067    7642   21030    7923   21029    7754
SEQGP      21028    7639   21041    7488   21040    7330   21038    7294
SEQGP      21074    9562   21054    9450   21075    9664   21076    9770
SEQGP      21082    9937   21083    9855   21048    9661   21047    9557
SEQGP      21056    9413   21055    9414   21084    8855   21062    8808
SEQGP      21085    9001   21086    9111   21053    9330   21052    9205
SEQGP      21064    9004   21063    8856   21092    8040   21070    8162
SEQGP      21093    8041   21061    8801   21060    8762   21072    8497
SEQGP      21071    8340   21069    7983   21068    7826   21073    7472
SEQGP      21096    9910   21079    9873   21097    9989   21081    9996
SEQGP      21080    9911   21098    9419   21089    9482   21078    9871
SEQGP      21077    9861   21091    9690   21090    9590   21088    9366
SEQGP      21087    9252   21095    8969   21094    8822   21107    7888
SEQGP      21106    7720   21108    8063   21111    7188   21102    7029
SEQGP      21112    7347   21113    7528   21103    7006   21104    7007
SEQGP      21101    6854   21100    6691   21134    8235   21116    8065
SEQGP      21135    8401   21136    8570   21142    8887   21143    8735
SEQGP      21110    8404   21109    8238   21118    8234   21117    8233
SEQGP      21144    7734   21124    7549   21145    7904   21146    8090
SEQGP      21115    7881   21114    7716   21126    7505   21125    7506
SEQGP      21123    7370   21170    9139   21139    9043   21172    9444
SEQGP      21171    9391   21141    9020   21140    9017   21175    8745
SEQGP      21149    8593   21176    8899   21177    9057   21138    8883
SEQGP      21137    8731   21151    8548   21150    8549   21183    8280
SEQGP      21157    8101   21184    8439   21185    8607   21148    8427
SEQGP      21147    8272   21159    8034   21158    8035   21191    7456
SEQGP      21165    7449   21192    7489   21193    7637   21156    7918
SEQGP      21155    7753   21154    7565   21167    7490   21166    7457
SEQGP      21164    7391   21200    9559   21180    9448   21201    9665
SEQGP      21202    9771   21208    9936   21209    9852   21174    9658
SEQGP      21173    9556   21182    9415   21181    9416   21210    8953
SEQGP      21188    8946   21211    9005   21212    9107   21179    9325
SEQGP      21178    9206   21190    9006   21189    8954   21218    8042
SEQGP      21196    8164   21219    8043   21187    8911   21186    8763
SEQGP      21198    8494   21197    8341   21195    7982   21194    7821
SEQGP      21199    7473   21222    9952   21205    9950   21223    9990
SEQGP      21207    9997   21206    9953   21224    9420   21215    9484
SEQGP      21204    9943   21203    9862   21217    9687   21216    9591
SEQGP      21214    9365   21213    9247   21221    8963   21220    8824
SEQGP      21225    7023   21226    7022   21227    7021   21228    7020
SEQGP      21229    7535   21230    7534   21231    7533   21232    7532
SEQGP      21233    7853   21234    7676   21235    7354   21236    7195
SEQGP      21237    6847   21238    6684   21239    6504   21240    7683
SEQGP      21241    7675   21242    7353   21243    7194   21244    6846
SEQGP      21245    6683   21246    6503   21247    7682   21248    7674
SEQGP      21249    7352   21250    7193   21251    6845   21252    6682
SEQGP      21253    6502   21254    7852   21255    7673   21256    7351
SEQGP      21257    7192   21258    6844   21259    6681   21260    6501
SEQGP      20790    6804   21261    6626   20916    6806   21262    6627
SEQGP      21042    6807   21263    6628   21168    6808   21264    6630
SEQGP      21265    7315   21266    7316   21267    7317   21268    7319
SEQGP      21269    8170   21270    8171   21271    8172   21272    8174
SEQGP      21273    8664   21274    8665   21275    8666   21276    8667
SEQGP      21277    9489   21278    9490   21279    9493   21280    9494
SEQGP      21281   10036   21282   10040   21283   10041   21284   10039
SEQGP      21285    6315   21286    6305   21287    6464   21288    6651
SEQGP      21289    6820   21290    6978   21291    6985   21292    7151
SEQGP      21293    7469   21294    7491   21295    7648   21296    7831
SEQGP      21297    7989   21298    8348   21299    8505   21300    8819
SEQGP      21301    8966   21302    9114   21303    9256   21304    9371
SEQGP      21305    9597   21306    9695   21307    9790   21308    9879
SEQGP      21309    9958   21310   10122   21311   10180   21312    6316
SEQGP      21313    6151   21314    6465   21315    6652   21316    6821
SEQGP      21317    6827   21318    6986   21319    7152   21320    7331
SEQGP      21321    7492   21322    7649   21323    7832   21324    7990
SEQGP      21325    8350   21326    8506   21327    8821   21328    8968
SEQGP      21329    9115   21330    9257   21331    9376   21332    9598
SEQGP      21333    9696   21334    9795   21335    9880   21336    9959
SEQGP      21337   10123   21338   10181   21339    6317   21340    6152
SEQGP      21341    6467   21342    6653   21343    6822   21344    6828
SEQGP      21345    6987   21346    7154   21347    7332   21348    7493
SEQGP      21349    7651   21350    7834   21351    7992   21352    8351
SEQGP      21353    8507   21354    8823   21355    8970   21356    9116
SEQGP      21357    9258   21358    9377   21359    9599   21360    9697
SEQGP      21361    9796   21362    9883   21363    9960   21364   10127
SEQGP      21365   10182   21366    6318   21367    6310   21368    6468
SEQGP      21369    6654   21370    6823   21371    6979   21372    6988
SEQGP      21373    7155   21374    7474   21375    7494   21376    7652
SEQGP      21377    7836   21378    7994   21379    8352   21380    8508
SEQGP      21381    8825   21382    8971   21383    9117   21384    9259
SEQGP      21385    9374   21386    9602   21387    9698   21388    9793
SEQGP      21389    9884   21390    9962   21391   10126   21392   10184
SEQGP      21401    5987   21400    5988   21402    6021   21405    4901
SEQGP      21396    4953   21406    4902   21407    4967   21397    5148
SEQGP      21398    5315   21413    3647   21399    3721   21414    3648
SEQGP      21415    3837   21395    4757   21394    4585   21393    4382
SEQGP      21403    6193   21404    6349   21412    5843   21411    5676
SEQGP      21438    4319   21418    4394   21439    4320   21440    4404
SEQGP      21408    5162   21409    5329   21420    4769   21419    4597
SEQGP      10933    2752   21446    2753   21424    2932   10903    2931
SEQGP      10932    2943   21447    2944   21448    3068   21417    4285
SEQGP      21416    4069   21426    3612   21425    3163   10908    3162
SEQGP      21454    1692   21427    1794   10909    1793   21455    1693
SEQGP      21456    1790   10904    2740   21423    2741   10905    2529
SEQGP      21422    2530   10906    2322   21421    2426   21477    3655
SEQGP      21451    3738   21478    3656   21479    3751   21441    4610
SEQGP      21453    4181   21452    3966   21485    2337   21459    2429
SEQGP      21486    2338   21487    2496   21450    3513   21449    3307
SEQGP      21461    2838   21460    2649   21458    2193   21457    1993
SEQGP      21463    1585   21462    1393   21504    4327   21482    4416
SEQGP      21505    4328   21506    4481   21483    4622   21512    2964
SEQGP      21490    3085   21513    2965   21481    4191   21480    3975
SEQGP      21492    3529   21491    3326   21489    2853   21488    2660
SEQGP      21493    2269   21507    4631   21515    4261   21514    4056
SEQGP      21527    5989   21526    5990   21528    6020   21531    4903
SEQGP      21522    4950   21532    4904   21533    4966   21523    5147
SEQGP      21524    5314   21539    3649   21525    3719   21540    3650
SEQGP      21541    3838   21521    4754   21520    4584   21519    4381
SEQGP      21529    6192   21530    6346   21538    5842   21537    5675
SEQGP      21564    4321   21544    4391   21565    4322   21566    4407
SEQGP      21534    5161   21535    5326   21546    4768   21545    4596
SEQGP      21572    2754   21550    2933   21573    2945   21574    3070
SEQGP      21543    4171   21542    4071   21552    3613   21551    3164
SEQGP      21580    1694   21553    1795   21581    1695   21582    1798
SEQGP      21549    2742   21548    2641   21547    2425   21603    3657
SEQGP      21577    3739   21604    3658   21605    3755   21567    4607
SEQGP      21579    4184   21578    3967   21611    2339   21585    2430
SEQGP      21612    2340   21613    2502   21576    3514   21575    3310
SEQGP      21587    2844   21586    2650   21584    2194   21583    2001
SEQGP      21589    1588   21588    1395   21630    4329   21608    4417
SEQGP      21631    4330   21632    4487   21609    4623   21638    2966
SEQGP      21616    3086   21639    2967   21607    4192   21606    3981
SEQGP      21618    3533   21617    3327   21615    2854   21614    2713
SEQGP      21619    2272   21633    4684   21641    4275   21640    4058
SEQGP      21653    5991   21652    5992   21654    6017   21657    4905
SEQGP      21648    4949   21658    4906   21659    4963   21649    5146
SEQGP      21650    5313   21665    3651   21651    3718   21666    3652
SEQGP      21667    3839   21647    4750   21646    4581   21645    4378
SEQGP      21655    6189   21656    6342   21664    5841   21663    5674
SEQGP      21690    4323   21670    4390   21691    4324   21692    4400
SEQGP      21660    5158   21661    5322   21672    4767   21671    4595
SEQGP      21698    2946   21676    2934   21699    2947   21700    3075
SEQGP      21669    4167   21668    3956   21678    3616   21677    3165
SEQGP      21706    1696   21679    1796   21707    1697   21708    1800
SEQGP      21675    2831   21674    2639   21673    2419   21729    3659
SEQGP      21703    3740   21730    3660   21731    3757   21693    4605
SEQGP      21705    4185   21704    3968   21737    2341   21711    2431
SEQGP      21738    2342   21739    2503   21702    3517   21701    3312
SEQGP      21713    2845   21712    2651   21710    2197   21709    2003
SEQGP      21715    1590   21714    1396   21756    4331   21734    4418
SEQGP      21757    4332   21758    4489   21735    4624   21764    2968
SEQGP      21742    3087   21765    2969   21733    4195   21732    3983
SEQGP      21744    3534   21743    3328   21741    2857   21740    2715
SEQGP      21745    2273   21759    4686   21767    4277   21766    4060
SEQGP      21779    5993   21778    5994   21780    6014   21783    4907
SEQGP      21774    4948   21784    4908   21785    4960   21775    5145
SEQGP      21776    5311   21791    3653   21777    3717   21792    3654
SEQGP      21793    3729   21773    4749   21772    4577   21771    4375
SEQGP      21781    6185   21782    6341   21790    5838   21789    5673
SEQGP      21816    4325   21796    4389   21817    4326   21818    4398
SEQGP      21786    5154   21787    5321   21798    4764   21797    4594
SEQGP      21824    2953   21802    3063   21825    2956   21826    3073
SEQGP      21795    4166   21794    3951   21804    3617   21803    3166
SEQGP      21832    1698   21805    1783   21833    1699   21834    1792
SEQGP      21801    2830   21800    2636   21799    2417   21855    3661
SEQGP      21829    3742   21856    3662   21857    3753   21819    4602
SEQGP      21831    4176   21830    3969   21863    2343   21837    2433
SEQGP      21864    2344   21865    2498   21828    3519   21827    3313
SEQGP      21839    2842   21838    2652   21836    2196   21835    1995
SEQGP      21841    1587   21840    1397   21882    4333   21860    4420
SEQGP      21883    4334   21884    4483   21861    4625   21890    2970
SEQGP      21868    3089   21891    2971   21859    4194   21858    3977
SEQGP      21870    3531   21869    3329   21867    2856   21866    2662
SEQGP      21871    2274   21885    4633   21893    4263   21892    4062
SEQGP      21897    5485   21898    5484   21899    5483   21900    5482
SEQGP      21901    6007   21902    6006   21903    6005   21904    6004
SEQGP      21905    6336   21906    6180   21907    5829   21908    5662
SEQGP      21909    5307   21910    5140   21911    4944   21912    6335
SEQGP      21913    6179   21914    5828   21915    5661   21916    5305
SEQGP      21917    5139   21918    4942   21919    6334   21920    6178
SEQGP      21921    5827   21922    5660   21923    5304   21924    5137
SEQGP      21925    4941   21926    6333   21927    6177   21928    5826
SEQGP      21929    5659   21930    5303   21931    5136   21932    4939
SEQGP      21933    1176   21934    1177   21935    1178   21936    1180
SEQGP      21937    2071   21938    2072   21939    2073   21940    2075
SEQGP      21941    3153   21942    3154   21943    3155   21944    3157
SEQGP      21945    3828   21946    3829   21947    3830   21948    3831
SEQGP      21953    5809   21517    5810   21954    5954   21643    5811
SEQGP      21955    5956   21769    5814   21956    5958   21895    5973
SEQGP      21957     781   21958     779   21959     966   21960    1262
SEQGP      21961    1457   21962    1647   21963    1665   21964    1864
SEQGP      21965    2270   21966    2297   21967    2517   21968    2730
SEQGP      21969    2921   21970    3394   21971    3602   21972    4057
SEQGP      21973    4274   21974    4500   21975    4700   21977    5261
SEQGP      21949    5065   21978    5426   21979    5452   21980    5622
SEQGP      21981    5793   21982    5967   21983    6141   21984     782
SEQGP      21985     614   21986     967   21987    1263   21988    1458
SEQGP      21989    1479   21990    1666   21991    1865   21992    2100
SEQGP      21993    2298   21994    2518   21995    2731   21996    2922
SEQGP      21997    3396   21998    3603   21999    4059   22000    4276
SEQGP      22001    4501   22002    4701   22004    5262   21950    5066
SEQGP      22005    5427   22006    5599   22007    5624   22008    5795
SEQGP      22009    5971   22010    6143   22011     783   22012     615
SEQGP      22013     969   22014    1264   22015    1459   22016    1480
SEQGP      22017    1667   22018    1867   22019    2101   22020    2299
SEQGP      22021    2520   22022    2733   22023    2924   22024    3397
SEQGP      22025    3604   22026    4061   22027    4278   22028    4502
SEQGP      22029    4702   22031    5263   21951    5069   22032    5428
SEQGP      22033    5600   22034    5770   22035    5797   22036    6130
SEQGP      22037    6147   22038     784   22039     780   22040     970
SEQGP      22041    1265   22042    1460   22043    1648   22044    1668
SEQGP      22045    1868   22046    2275   22047    2300   22048    2521
SEQGP      22049    2735   22050    2926   22051    3398   22052    3605
SEQGP      22053    4063   22054    4279   22055    4503   22056    4703
SEQGP      22058    5266   21952    5070   22059    5429   22060    5595
SEQGP      22061    5771   22062    5932   22063    6132   22064    6295
SEQGP      22073    4309   22072    4314   22074    4306   22077    3198
SEQGP      22068    3200   22078    2972   22079    3029   22069    3424
SEQGP      22070    3630   22067    3204   22066    3205   22100    3488
SEQGP      22082    3700   22101    3284   22102    3046   22108    3946
SEQGP      22109    4160   22076    4318   22075    4310   22084    4139
SEQGP      22083    3925   22110    2316   22090    2391   22111    2311
SEQGP      22112    2294   22081    3473   22080    3268   22092    2800
SEQGP      22091    2607   22089    2201   22088    2098   22136    2826
SEQGP      22105    3057   11120    2634   22137    2632   11119    2414
SEQGP      22138    2412   22107    3500   22106    3297   22141    2170
SEQGP      22115    2403   11088    2404   22142    1970   22143    1763
SEQGP      22104    2978   22103    2979   22117    2817   11095    2625
SEQGP      22116    2624   22149    1539   22123    1733   22150    1344
SEQGP      22151    1122   22114    2320   22113    2312   22125    2141
SEQGP      22124    1941   22157     460   22131     519   22158     453
SEQGP      22159     439   22122    1514   22121    1315   22135     239
SEQGP      22128     240   22134     136   22166    1563   22146    1775
SEQGP      22167    1367   22168    1150   11160    2004   22174    2005
SEQGP      11159    2206   22175    2207   11117    2327   22140    2328
SEQGP      11118    2329   22139    2330   11128    2182   22148    2180
SEQGP      11129    1983   22147    1982   22176     918   22154    1133
SEQGP      22177     721   22178     548   22145    1682   22144    1683
SEQGP      22156    1551   22155    1357   22184     403   22162     542
SEQGP      22185     285   22153    1052   22152    1053   22164     909
SEQGP      22163     714   22161     463   22160     454   22165     364
SEQGP      22188     833   22171    1012   22189     756   11161    1579
SEQGP      22173    1580   22172    1170   22190     417   22181     553
SEQGP      22170     848   22169    1017   22183     934   22182     737
SEQGP      22180     475   22179     476   22187     408   22186     288
SEQGP      22199    4098   22198    4312   22200    4096   22203    2974
SEQGP      22194    3199   22204    2973   22205    3026   22195    3423
SEQGP      22196    3629   22193    2986   22192    3206   22226    3487
SEQGP      22208    3699   22227    3283   22228    3043   22234    3945
SEQGP      22235    4159   22202    4316   22201    4100   22210    4094
SEQGP      22209    3924   22236    2314   22216    2436   22237    2111
SEQGP      22238    2109   22207    3472   22206    3267   22218    2796
SEQGP      22217    2604   22215    2296   22214    2099   22262    2825
SEQGP      22231    3056   22263    2631   22264    2410   22233    3498
SEQGP      22232    3295   22267    2169   22241    2402   22268    1969
SEQGP      22269    1761   22230    2980   22229    2981   22243    2814
SEQGP      22242    2622   22275    1538   22249    1732   22276    1343
SEQGP      22277    1120   22240    2318   22239    2113   22251    2094
SEQGP      22250    1939   22283     459   22257     560   22284     343
SEQGP      22285     339   22248    1513   22247    1314   22261     134
SEQGP      22254     211   22260     133   22292    1562   22272    1774
SEQGP      22293    1366   22294    1141   22300    2006   22301    2191
SEQGP      22266    2331   22265    2332   22274    2178   22273    1980
SEQGP      22302     917   22280    1132   22303     720   22304     534
SEQGP      22271    1686   22270    1687   22282    1549   22281    1355
SEQGP      22310     405   22288     528   22311     293   22279    1054
SEQGP      22278    1055   22290     907   22289     712   22287     462
SEQGP      22286     344   22291     327   22314     834   22297    1013
SEQGP      22315     757   22299    1581   22298    1223   22316     418
SEQGP      22307     557   22296     851   22295    1020   22309     935
SEQGP      22308     740   22306     477   22305     478   22313     409
SEQGP      22312     297   22325    4097   22324    4311   22326    4095
SEQGP      22329    2976   22320    3201   22330    2975   22331    3025
SEQGP      22321    3425   22322    3631   22319    2987   22318    3207
SEQGP      22352    3486   22334    3696   22353    3282   22354    3042
SEQGP      22360    3944   22361    4158   22328    4315   22327    4099
SEQGP      22336    4093   22335    3922   22362    2313   22342    2382
SEQGP      22363    2110   22364    2108   22333    3471   22332    3266
SEQGP      22344    2792   22343    2600   22341    2295   22340    2096
SEQGP      22388    2824   22357    3054   22389    2630   22390    2409
SEQGP      22359    3495   22358    3293   22393    2168   22367    2400
SEQGP      22394    1968   22395    1760   22356    2982   22355    2983
SEQGP      22369    2810   22368    2619   22401    1537   22375    1730
SEQGP      22402    1342   22403    1119   22366    2317   22365    2112
SEQGP      22377    2093   22376    1937   22409     461   22383     499
SEQGP      22410     345   22411     340   22374    1512   22373    1313
SEQGP      22387     127   22380     210   22386      46   22418    1561
SEQGP      22398    1772   22419    1365   22420    1140   22426    1991
SEQGP      22427    2190   22392    2333   22391    2334   22400    2175
SEQGP      22399    1978   22428     916   22406    1130   22429     719
SEQGP      22430     533   22397    1688   22396    1689   22408    1546
SEQGP      22407    1353   22436     389   22414     526   22437     294
SEQGP      22405    1056   22404    1057   22416     904   22415     710
SEQGP      22413     464   22412     346   22417     328   22440     950
SEQGP      22423    1014   22441     758   22425    1582   22424    1224
SEQGP      22442     419   22433     558   22422    1021   22421    1022
SEQGP      22435     923   22434     742   22432     479   22431     480
SEQGP      22439     393   22438     298   22451    4307   22450    4313
SEQGP      22452    4305   22455    3202   22446    3203   22456    2977
SEQGP      22457    3024   22447    3427   22448    3633   22445    3208
SEQGP      22444    3209   22478    3484   22460    3694   22479    3281
SEQGP      22480    3041   22486    3943   22487    4155   22454    4317
SEQGP      22453    4308   22462    4135   22461    3919   22488    2315
SEQGP      22468    2378   22489    2309   22490    2293   22459    3468
SEQGP      22458    3265   22470    2791   22469    2596   22467    2149
SEQGP      22466    2095   22514    2822   22483    3052   22515    2629
SEQGP      22516    2408   22485    3494   22484    3290   22519    2165
SEQGP      22493    2397   22520    1967   22521    1759   22482    2984
SEQGP      22481    2985   22495    2809   22494    2615   22527    1535
SEQGP      22501    1728   22528    1341   22529    1118   22492    2319
SEQGP      22491    2310   22503    2137   22502    1934   22535     465
SEQGP      22509     497   22536     455   22537     440   22500    1510
SEQGP      22499    1312   22513     126   22506     233   22512      38
SEQGP      22544    1559   22524    1770   22545    1364   22546    1139
SEQGP      22552    1990   22553    2185   22518    2335   22517    2336
SEQGP      22526    2174   22525    1974   22554     914   22532    1128
SEQGP      22555     718   22556     532   22523    1690   22522    1691
SEQGP      22534    1545   22533    1349   22562     387   22540     524
SEQGP      22563     272   22531    1058   22530    1059   22542     903
SEQGP      22541     707   22539     466   22538     456   22543     366
SEQGP      22566     946   22549    1157   22567     759   22551    1632
SEQGP      22550    1225   22568     420   22559     555   22548    1037
SEQGP      22547    1039   22561     922   22560     724   22558     481
SEQGP      22557     482   22565     392   22564     275   22569    3853
SEQGP      22570    3854   22571    3855   22572    3857   22573    4369
SEQGP      22574    4421   22575    4367   22576    4365   22577    4746
SEQGP      22578    4574   22579    4197   22580    4083   22581    3643
SEQGP      22582    3863   22583    4089   22584    4744   22585    4572
SEQGP      22586    4297   22587    4084   22588    3645   22589    3865
SEQGP      22590    4091   22591    4742   22592    4570   22593    4298
SEQGP      22594    4085   22595    3646   22596    3866   22597    4092
SEQGP      22598    4741   22599    4568   22600    4145   22601    4086
SEQGP      22602    3644   22603    3864   22604    4090   22605      58
SEQGP      22606      48   22607      45   22608      10   22609     244
SEQGP      22610     245   22611     246   22612     247   22613     187
SEQGP      22614     188   22615     190   22616     193   22617     198
SEQGP      22618     199   22619     200   22620     201   22621     302
SEQGP      22622     303   22623     304   22624     305   22625     579
SEQGP      22626     580   22627     581   22628     582   22629      53
SEQGP      22630      52   22631      25   22632      26   22633      27
SEQGP      22634      59   22635      60   22636     137   22637     194
SEQGP      22638     189   22639     186   22640      91   22641      92
SEQGP      22642     103   22643     104   22644     111   22645     112
SEQGP      22646     202   22647     203   22648     206   22649     319
SEQGP      22650     320   22651     321   22652     434   22653     449
SEQGP      22654     608   22655     771   22656      19   22657      18
SEQGP      22658      21   22659      22   22660      23   22661      24
SEQGP      22662      49   22663     138   22664     195   22665      99
SEQGP      22666      94   22667      93   22668      95   22669     105
SEQGP      22670     106   22671     113   22672     114   22673     115
SEQGP      22674     119   22675     207   22676     224   22677     225
SEQGP      22678     322   22679     337   22680     450   22681     609
SEQGP      22682     612   22683      13   22684      20   22685      14
SEQGP      22686      15   22687      16   22688      17   22689      50
SEQGP      22690     139   22691     196   22692     100   22693      97
SEQGP      22694      96   22695      98   22696     107   22697     108
SEQGP      22698     116   22699     117   22700     118   22701     120
SEQGP      22702     208   22703     226   22704     227   22705     323
SEQGP      22706     338   22707     451   22708     610   22709     613
SEQGP      22710      37   22711      47   22712       9   22713      11
SEQGP      22714      12   22715      44   22716      51   22717     140
SEQGP      22718     197   22719     192   22720     191   22721     101
SEQGP      22722     102   22723     109   22724     110   22725     121
SEQGP      22726     122   22727     204   22728     205   22729     209
SEQGP      22730     324   22731     325   22732     326   22733     436
SEQGP      22734     452   22735     611   22736     774   22743    4131
SEQGP      22742    4354   22744    3914   22747    4925   22739    5092
SEQGP      22748    4724   22749    4548   22740    5095   22741    5100
SEQGP      22755    4441   22756    4218   22757    4000   22738    5096
SEQGP      22737    5101   22768    3673   22752    3899   22769    3447
SEQGP      22745    3685   22746    3456   22754    4129   22753    4111
SEQGP      22778    3777   22760    4006   22779    3551   22780    3349
SEQGP      22751    4112   22750    4342   22762    4448   22761    4223
SEQGP      22786    3103   22765    3345   22787    2873   22788    2676
SEQGP      22759    3883   22758    3884   22767    3770   22766    3545
SEQGP      22794    2486   22795    2254   22796    2054   22764    3222
SEQGP      22763    3223   22817    2460   22791    2683   22818    2227
SEQGP      22819    2025   22781    3193   22782    3187   22793    3112
SEQGP      22792    2880   22825    1830   22799    2043   22826    1615
SEQGP      22827    1432   22790    2547   22789    2548   22801    2453
SEQGP      22800    2221   22798    1894   22797    1895   22803    1847
SEQGP      22802    1640   22844    1825   22822    2035   22845    1611
SEQGP      22846    1428   22823    2238   22852    1204   22830    1422
SEQGP      22853     990   22821    1902   22820    1903   22832    1816
SEQGP      22831    1604   22829    1281   22828    1282   22833    1218
SEQGP      22858    1166   22849    1236   22850    1242   22848    1243
SEQGP      22847    1251   22855    1209   22854     993   22865    4126
SEQGP      22864    4353   22866    3915   22869    4894   22861    4896
SEQGP      22870    4722   22871    4547   22862    4898   22863    5098
SEQGP      22877    4439   22878    4214   22879    3999   22860    4899
SEQGP      22859    5102   22890    3670   22874    3897   22891    3444
SEQGP      22867    3686   22868    3457   22876    4127   22875    4109
SEQGP      22900    3776   22882    4005   22901    3550   22902    3343
SEQGP      22873    4110   22872    4341   22884    4442   22883    4222
SEQGP      22908    3101   22887    3338   22909    2869   22910    2675
SEQGP      22881    3885   22880    3886   22889    3769   22888    3544
SEQGP      22916    2487   22917    2257   22918    2056   22886    3224
SEQGP      22885    3225   22939    2459   22913    2682   22940    2226
SEQGP      22941    2023   22903    3194   22904    2961   22915    3105
SEQGP      22914    2878   22947    1831   22921    2018   22948    1627
SEQGP      22949    1436   22912    2549   22911    2550   22923    2452
SEQGP      22922    2220   22920    1896   22919    1897   22925    1852
SEQGP      22924    1641   22966    1824   22944    2034   22967    1610
SEQGP      22968    1414   22945    2237   22974    1206   22952    1408
SEQGP      22975     998   22943    1904   22942    1905   22954    1814
SEQGP      22953    1602   22951    1283   22950    1284   22955    1219
SEQGP      22980    1035   22971    1044   22972    1048   22970    1049
SEQGP      22969    1252   22977    1210   22976    1008   22987    4122
SEQGP      22986    4350   22988    3909   22991    4893   22983    4895
SEQGP      22992    4720   22993    4545   22984    4897   22985    5097
SEQGP      22999    4432   23000    4212   23001    3995   22982    4900
SEQGP      22981    5103   23012    3667   22996    3896   23013    3441
SEQGP      22989    3687   22990    3458   22998    4123   22997    4107
SEQGP      23022    3775   23004    4004   23023    3549   23024    3342
SEQGP      22995    4108   22994    4340   23006    4436   23005    4216
SEQGP      23030    3094   23009    3337   23031    2867   23032    2671
SEQGP      23003    3887   23002    3888   23011    3768   23010    3543
SEQGP      23038    2484   23039    2259   23040    2060   23008    3226
SEQGP      23007    3227   23061    2458   23035    2680   23062    2225
SEQGP      23063    2022   23025    3195   23026    2963   23037    3098
SEQGP      23036    2871   23069    1807   23043    2017   23070    1629
SEQGP      23071    1437   23034    2551   23033    2552   23045    2451
SEQGP      23044    2219   23042    1898   23041    1899   23047    1853
SEQGP      23046    1642   23088    1823   23066    2033   23089    1609
SEQGP      23090    1413   23067    2236   23096    1190   23074    1406
SEQGP      23097     999   23065    1906   23064    1907   23076    1811
SEQGP      23075    1600   23073    1285   23072    1286   23077    1220
SEQGP      23102    1036   23093    1045   23094    1050   23092    1051
SEQGP      23091    1253   23099    1194   23098    1009   23109    4119
SEQGP      23108    4349   23110    3905   23113    4921   23105    5091
SEQGP      23114    4717   23115    4543   23106    5093   23107    5099
SEQGP      23121    4431   23122    4206   23123    3993   23104    5094
SEQGP      23103    5104   23134    3666   23118    3895   23135    3438
SEQGP      23111    3680   23112    3459   23120    4114   23119    4105
SEQGP      23144    3773   23126    3997   23145    3548   23146    3341
SEQGP      23117    4106   23116    4338   23128    4435   23127    4209
SEQGP      23152    3093   23131    3336   23153    2861   23154    2669
SEQGP      23125    3889   23124    3890   23133    3765   23132    3542
SEQGP      23160    2483   23161    2252   23162    2058   23130    3228
SEQGP      23129    3229   23183    2456   23157    2673   23184    2224
SEQGP      23185    2021   23147    3197   23148    3189   23159    3097
SEQGP      23158    2864   23191    1806   23165    2016   23192    1594
SEQGP      23193    1434   23156    2553   23155    2554   23167    2448
SEQGP      23166    2218   23164    1900   23163    1901   23169    1850
SEQGP      23168    1643   23210    1821   23188    2031   23211    1608
SEQGP      23212    1412   23189    2232   23218    1188   23196    1404
SEQGP      23219     977   23187    1908   23186    1909   23198    1810
SEQGP      23197    1597   23195    1287   23194    1288   23199    1221
SEQGP      23224    1167   23215    1237   23216    1244   23214    1245
SEQGP      23213    1255   23221    1193   23220     980   23225    5133
SEQGP      23226    5132   23227    5130   23228    5128   23229    4559
SEQGP      23230    4558   23231    4557   23232    4556   23233    4300
SEQGP      23234    4520   23235    4734   23236    4935   23237    5300
SEQGP      23238    5480   23239    4303   23240    4521   23241    4733
SEQGP      23242    4934   23243    5298   23244    5478   23245    4304
SEQGP      23246    4524   23247    4732   23248    4933   23249    5296
SEQGP      23250    5476   23251    4302   23252    4523   23253    4731
SEQGP      23254    4931   23255    5294   23256    5475   23257    1450
SEQGP      23258    1451   23259    1452   23260    1453   23261    1003
SEQGP      23262    1004   23263    1005   23264    1006   23265     810
SEQGP      23266     811   23267     813   23268     816   23269     821
SEQGP      23270     822   23271     823   23272     824   23273     955
SEQGP      23274     956   23275     957   23276     958   23277     253
SEQGP      22857     371   23278     254   22979     373   23279     255
SEQGP      23101     374   23280     257   23223     375   23281    1659
SEQGP      23282    1475   23283    1238   23284    1230   23285    1027
SEQGP      23286    1028   23287    1030   23288     817   23289     812
SEQGP      23290     809   23291     632   23292     633   23293     644
SEQGP      23294     645   23295     652   23296     653   23297     825
SEQGP      23298     826   23299     829   23300     763   23301     586
SEQGP      23302     574   23303     443   23304     330   23305     144
SEQGP      23306      54   23307    1481   23308    1476   23309    1239
SEQGP      23310    1042   23311    1029   23312     854   23313     855
SEQGP      23314     818   23315     640   23316     635   23317     634
SEQGP      23318     636   23319     646   23320     647   23321     654
SEQGP      23322     655   23323     656   23324     660   23325     830
SEQGP      23326     764   23327     587   23328     471   23329     444
SEQGP      23330     331   23331     145   23332      55   23333    1482
SEQGP      23334    1477   23335    1240   23336    1043   23337    1031
SEQGP      23338     856   23339     857   23340     819   23341     641
SEQGP      23342     638   23343     637   23344     639   23345     648
SEQGP      23346     649   23347     657   23348     658   23349     659
SEQGP      23350     661   23351     831   23352     766   23353     588
SEQGP      23354     472   23355     445   23356     332   23357     147
SEQGP      23358      56   23359    1662   23360    1478   23361    1241
SEQGP      23362    1233   23363    1033   23364    1032   23365    1034
SEQGP      23366     820   23367     815   23368     814   23369     642
SEQGP      23370     643   23371     650   23372     651   23373     662
SEQGP      23374     663   23375     827   23376     828   23377     832
SEQGP      23378     767   23379     589   23380     575   23381     446
SEQGP      23382     333   23383     148   23384      57   33112    8201
SEQGP      33107    8230   33113    8202   33114    8300   33120    7172
SEQGP      32838    7256   33108    8055   33127    7665   33117    7778
SEQGP      33129    7654   33128    7661   33119    7412   33118    7592
SEQGP      33132    8702   33124    8772   33133    8703   33134    8785
SEQGP      33116    7938   33115    8120   33126    8455   33125    8619
SEQGP      33142    8209   33137    8315   33143    8210   33144    8322
SEQGP      33150    7162   32840    7278   33151    7166   32839    7270
SEQGP      33139    7839   33138    8177   33136    8472   33135    8634
SEQGP      33141    8932   33140    9086   33157    7684   33147    7801
SEQGP      33158    7678   33146    7962   33145    8141   33156    8477
SEQGP      33155    8642   33175    8203   33170    8221   33176    8204
SEQGP      33177    8301   33183    7173   32842    7257   33171    8056
SEQGP      33190    7664   33180    7773   33192    7655   33191    7507
SEQGP      33182    7411   33181    7589   33195    8704   33187    8767
SEQGP      33196    8705   33197    8788   33179    7939   33178    8121
SEQGP      33189    8454   33188    8616   33205    8211   33200    8355
SEQGP      33206    8212   33207    8324   33213    7163   32844    7160
SEQGP      33214    7167   32843    7264   33202    7840   33201    8178
SEQGP      33199    8473   33198    8632   33204    8931   33203    9083
SEQGP      33220    7686   33210    7829   33221    7685   33209    7963
SEQGP      33208    8145   33219    8482   33218    8643   33238    8205
SEQGP      33233    8222   33239    8206   33240    8297   33246    7175
SEQGP      32846    7253   33234    8047   33253    7666   33243    7774
SEQGP      33255    7656   33254    7662   33245    7408   33244    7585
SEQGP      33258    8706   33250    8768   33259    8707   33260    8782
SEQGP      33242    7940   33241    8122   33252    8451   33251    8612
SEQGP      33268    8213   33263    8356   33269    8214   33270    8326
SEQGP      33276    7164   32848    7161   33277    7168   32847    7265
SEQGP      33265    7842   33264    8179   33262    8467   33261    8631
SEQGP      33267    8928   33266    9079   33283    7695   33273    7830
SEQGP      33284    7694   33272    7967   33271    8146   33282    8480
SEQGP      33281    8638   33301    8207   33296    8223   33302    8208
SEQGP      33303    8294   33309    7177   32850    7250   33297    8048
SEQGP      33316    7669   33306    7775   33318    7786   33317    7667
SEQGP      33308    7405   33307    7586   33321    8708   33313    8769
SEQGP      33322    8709   33323    8779   33305    7941   33304    8117
SEQGP      33315    8448   33314    8613   33331    8215   33326    8310
SEQGP      33332    8216   33333    8320   33339    7165   32852    7281
SEQGP      33340    7169   32851    7266   33328    7843   33327    8180
SEQGP      33325    8466   33324    8626   33330    8925   33329    9080
SEQGP      33346    7697   33336    7805   33347    7696   33335    7966
SEQGP      33334    8143   33345    8474   33344    8639   32866    7089
SEQGP      32867    6912   32868    6755   32869    6579   32878    6641
SEQGP      32876    6802   32877    6637   32921    7088   32922    6911
SEQGP      32923    6750   32924    6576   32933    6640   32931    6801
SEQGP      32932    6638   32976    7090   32977    6913   32978    6751
SEQGP      32979    6572   32988    6643   32986    6803   32987    6642
SEQGP      33031    7085   33032    6914   33033    6752   33034    6573
SEQGP      33043    6646   33041    6766   33042    6644   35059    9154
SEQGP      35045    9230   35060    9152   35148    9153   35134    9225
SEQGP      35149    9021   35237    9156   35223    9226   35238    9155
SEQGP      35326    9164   35312    9227   35327    9161   35386    7620
SEQGP      35399    7621   35412    7624   35425    7625   37044    6708
SEQGP      37032    6529   37045    6872   37046    7046   37026    6515
SEQGP      37047    7213   37082    6957   37075    6953   37124    6707
SEQGP      37112    6528   37125    6869   37126    7040   37106    6512
SEQGP      37127    7212   37162    6964   37155    7126   37204    6704
SEQGP      37192    6525   37205    6864   37206    7041   37186    6511
SEQGP      37207    7214   37242    6966   37235    7130   37284    6700
SEQGP      37272    6522   37285    6865   37286    7042   37266    6510
SEQGP      37287    7215   37322    6962   37315    7067   37486    5463
SEQGP      37485    5501   37487    5464   37488    5514   37494    6483
SEQGP      37495    6484   37493    6361   37492    6205   37491    6033
SEQGP      37508    4909   37499    4977   37509    4910   37510    4987
SEQGP      37490    5857   37489    5691   37501    5340   37500    5173
SEQGP      37498    4780   37512    5349   37513    5524   37511    5182
SEQGP      37523    4790   37544    5812   37530    5968   37546    4917
SEQGP      37540    5002   37542    5364   37527    5534   37541    5199
SEQGP      37539    4803   37551    5465   37550    5498   37552    5466
SEQGP      37553    5513   37559    6485   37560    6486   37558    6360
SEQGP      37557    6204   37556    6030   37573    4911   37564    4975
SEQGP      37574    4912   37575    4989   37555    5854   37554    5689
SEQGP      37566    5339   37565    5172   37563    4778   37577    5350
SEQGP      37578    5453   37576    5185   37588    4796   37609    5813
SEQGP      37595    5969   37611    4918   37605    5003   37607    5368
SEQGP      37592    5538   37606    5200   37604    4804   37616    5467
SEQGP      37615    5497   37617    5468   37618    5511   37624    6487
SEQGP      37625    6488   37623    6359   37622    6203   37621    6029
SEQGP      37638    4913   37629    4974   37639    4914   37640    4994
SEQGP      37620    5850   37619    5686   37631    5338   37630    5171
SEQGP      37628    4775   37642    5353   37643    5454   37641    5187
SEQGP      37653    4797   37674    5972   37660    5970   37676    4919
SEQGP      37670    5004   37672    5369   37657    5540   37671    5201
SEQGP      37669    4807   37681    5469   37680    5496   37682    5470
SEQGP      37683    5508   37689    6489   37690    6490   37688    6356
SEQGP      37687    6202   37686    6028   37703    4915   37694    4973
SEQGP      37704    4916   37705    4992   37685    5849   37684    5682
SEQGP      37696    5336   37695    5170   37693    4774   37707    5355
SEQGP      37708    5526   37706    5188   37718    4794   37739    5974
SEQGP      37725    6055   37741    4920   37735    5006   37737    5366
SEQGP      37722    5536   37736    5202   37734    4806   37751    4866
SEQGP      37760    4875   37769    4876   37778    4869   44909    2389
SEQGP      44896    2606   44890    3256   44911    1999   44930    1092
SEQGP      44990    2384   44977    2605   44971    3251   44992    2065
SEQGP      45011    1090   45071    2383   45058    2591   45052    3252
SEQGP      45073    2066   45092    1089   45152    2370   45139    2588
SEQGP      45133    3253   45154    1948   45173    1088   45401    3242
SEQGP      45407    2801   45408    3018   45421    2513   45404    2585
SEQGP      45406    2555   45405    2556   45426    2994   45414    3177
SEQGP      45427    2761   45428    2571   45403    2778   45402    3008
SEQGP      45416    3191   45415    3186   45448    1303   45447    1491
SEQGP      45429    2353   45441    2471   45449    1102   45463    1249
SEQGP      45494    3241   45500    2786   45501    3015   45514    2514
SEQGP      45497    2728   45499    2557   45498    2558   45519    2948
SEQGP      45507    2957   45520    2760   45521    2567   45496    2779
SEQGP      45495    3001   45509    3190   45508    2960   45541    1293
SEQGP      45540    1490   45522    2352   45534    2470   45542    1079
SEQGP      45556    1248   45587    3238   45593    2783   45594    3011
SEQGP      45607    2515   45590    2729   45592    2559   45591    2560
SEQGP      45612    2949   45600    2958   45613    2762   45614    2568
SEQGP      45589    2769   45588    3000   45602    3192   45601    2962
SEQGP      45634    1294   45633    1492   45615    2348   45627    2467
SEQGP      45635    1071   45649    1250   45680    3235   45686    2780
SEQGP      45687    3012   45700    2516   45683    2576   45685    2561
SEQGP      45684    2562   45705    2990   45693    3178   45706    2763
SEQGP      45707    2569   45682    2768   45681    2997   45695    3196
SEQGP      45694    3188   45727    1295   45726    1493   45708    2349
SEQGP      45720    2466   45728    1072   45742    1254   45774    7998
SEQGP      45776    7999   45778    8000   45780    8002   45784    7663
SEQGP      45786    7508   45788    7509   45790    7668   45794    6639
SEQGP      45796    6491   45798    6492   45800    6645   46418    6959
SEQGP      46464    7128   46510    7234   46556    7233   47040    5979
SEQGP      47042    6137   47041    5975   47053    5455   47054    5459
SEQGP      47061    6475   46977    6471   47062    6476   46976    6541
SEQGP      47051    5960   47050    5626   47057    5807   47056    5706
SEQGP      47076    5978   47078    6136   47077    5976   47089    5456
SEQGP      47090    5460   47097    6324   46980    6470   47098    6477
SEQGP      46979    6538   47087    5959   47086    5625   47093    5808
SEQGP      47092    5711   47112    5981   47114    6138   47113    5980
SEQGP      47125    5457   47126    5461   47133    6478   46983    6472
SEQGP      47134    6479   46982    6537   47123    5961   47122    5627
SEQGP      47129    5874   47128    5713   47148    5984   47150    6041
SEQGP      47149    5982   47161    5458   47162    5462   47169    6481
SEQGP      46986    6550   47170    6482   46985    6536   47159    5963
SEQGP      47158    5628   47165    5873   47164    5708   46995    6993
SEQGP      46993    6983   46994    6989   46992    6883   46991    6720
SEQGP      47006    6992   47004    6982   47005    6829   47003    6826
SEQGP      47002    6719   47017    6994   47015    6984   47016    6990
SEQGP      47014    6882   47013    6718   47028    6997   47026    7054
SEQGP      47027    6995   47025    6879   47024    6717   47206    5799
SEQGP      47207    5798   47208    5800   47209    5802   47212    5977
SEQGP      47213    5815   47214    5816   47215    5983   47218    6991
SEQGP      47219    6830   47220    6831   47221    6996   47836     880
SEQGP      47835     702   47833     424   47832     313   47882     878
SEQGP      47881     683   47879     423   47878     308   47928     875
SEQGP      47927     681   47925     422   47924     307   47974     874
SEQGP      47973     677   47971     358   47970     309   48456    1878
SEQGP      48455    2088   48467    1711   48463    1922   48475     894
SEQGP      48391     747   48476    1100   48390    1305   48465    1885
SEQGP      48464    1888   48462    2125   48479     509   48472     692
SEQGP      48471     889   48492    1879   48491    2089   48503    1710
SEQGP      48499    1921   48511     940   48394     746   48512    1081
SEQGP      48393    1298   48501    1700   48500    1889   48498    2121
SEQGP      48515     511   48508     695   48507     885   48528    1880
SEQGP      48527    2091   48539    1712   48535    1915   48547     868
SEQGP      48397     745   48548    1075   48396    1299   48537    1886
SEQGP      48536    1890   48534    2119   48551     513   48544     687
SEQGP      48543     866   48564    1920   48563    2092   48575    1706
SEQGP      48571    1913   48583     863   48400     672   48584    1076
SEQGP      48399    1300   48573    1893   48572    1891   48570    2116
SEQGP      48587     503   48580     670   48579     860   48402    2202
SEQGP      48409    1858   48407    1384   48408    1464   48406    1273
SEQGP      48405    1277   48413    2203   48420    1857   48418    1269
SEQGP      48419    1463   48417    1274   48416    1278   48424    2151
SEQGP      48431    1859   48429    1270   48430    1465   48428    1275
SEQGP      48427    1279   48435    2150   48442    1860   48440    1319
SEQGP      48441    1466   48439    1276   48438    1280   48620    1887
SEQGP      48621    1701   48622    1702   48623    1892   48626    2286
SEQGP      48627    2288   48628    2289   48629    2291   48632    1652
SEQGP      48633    1651   48634    1653   48635    1655   50436   10147
SEQGP      50438   10148   50440   10149   50442   10150   50446    9517
SEQGP      50448    9608   50450    9609   50452    9610   50456    9273
SEQGP      50458    9274   50460    9275   50462    9277   50466    9837
SEQGP      50468    9915   50470    9916   50472    9991   50484    1387
SEQGP      50486    1389   50488    1439   50491    1440   50494    3405
SEQGP      50496    3407   50498    3408   50500    3409   48474     598
SEQGP      48473     594   48510     597   48509     595   48546     600
SEQGP      48545     599   48582     603   48581     601   48614     596
SEQGP      48615     483   48616     484   48617     602   47830     314
SEQGP      47876     311   47922     310   47968     312   48411     564
SEQGP      48422     562   48433     561   48444     563   48608     428
SEQGP      48609     426   48610     425   48611     427   33149    7322
SEQGP      33148    7644   33212    7323   33211    7645   33275    7324
SEQGP      33274    7646   33338    7325   33337    7647   45764    7478
SEQGP      45766    7479   45768    7480   45770    7481   47060    6451
SEQGP      47059    6133   47096    6321   47095    6144   47132    6452
SEQGP      47131    6145   47168    6456   47167    6146   47200    6298
SEQGP      47201    6300   47202    6307   47203    6308   23443    6815
SEQGP      23565    6814   23687    6816   23809    6817   32892    7140
SEQGP      32875    6924   32874    7101   32947    7139   32930    6963
SEQGP      32929    7102   33002    7141   32985    6927   32984    7097
SEQGP      33057    7142   33040    6921   33039    7098   45754    6971
SEQGP      45756    6970   45758    6972   45760    6974   46416    6951
SEQGP      46462    6955   46508    6968   46554    6969   46997    6633
SEQGP      47008    6634   47019    6635   47030    6636   47194    6796
SEQGP      47195    6810   47196    6811   47197    6812   23435    6312
SEQGP      23557    6311   23679    6313   23801    6314   20775    7463
SEQGP      20901    7464   21027    7465   21153    7466   32884    6621
SEQGP      32939    6620   32994    6622   33049    6624   45744    6459
SEQGP      45746    6458   45748    6460   45750    6462   46996    7146
SEQGP      47007    7147   47018    7148   47029    7150   47188    7308
SEQGP      47189    7309   47190    7310   47191    7311   47823    1060
SEQGP      47869    1061   47915    1064   47961    1066   48410    1256
SEQGP      48421    1257   48432    1258   48443    1259   48602    1062
SEQGP      48603    1063   48604    1065   48605    1067   33131    7421
SEQGP      33130    7602   33194    7422   33193    7495   33257    7423
SEQGP      33256    7603   33320    7424   33319    7599   47044    6375
SEQGP      47043    6218   47080    6372   47079    6302   47116    6368
SEQGP      47115    6215   47152    6367   47151    6211   48458    1496
SEQGP      48457    1717   48494    1497   48493    1675   48530    1498
SEQGP      48529    1719   48566    1499   48565    1716
$
& SPC's froun in G.P. singularity proc with EPS_SING
$
$ C.G. Point
GRID,60001,,0.,0.,-.32
SPC1,3,123456,60001
$
$ Loads for Load Case : Oload
$$SPCADD   2       3
SPCADD   2       3       
LOAD     2       1.      1.      1
$ Loads for Load Case : 1G
LOAD     4       1.      1.      3
$ Displacement Constraints of Load Set : ball_trans
SPC1     3       123     32480   46828   48242
$ Pressure Loads of Load Set : oload
$$PLOAD4   1       1      -1.                              THRU    5742
PLOAD2   1       -1.     1       THRU    5742
$ Gravity Loading of Load Set : 1g_z
GRAV     3       0       386.4   0.      0.     -1.
$ Referenced Coordinate Frames
CORD2C   1               0.      0.      0.      0.      0.      1.
         1.      0.      0.
ENDDATA 515b3571
